#read_data	${fname}.dat
read_restart	restart.${fname}.dat
read_restart	restart.nvthightemp.dat
  orthogonal box = (0 0 0) to (119.642 119.642 119.642)
  1 by 1 by 1 MPI processor grid
  1025 atoms
  1008 bonds
  2 = max # of 1-2 neighbors
  2 = max # of 1-3 neighbors
  4 = max # of 1-4 neighbors
  6 = max # of special neighbors

# Dreiding potential information
neighbor	0.4 bin
neigh_modify	every 10 one 10000
#bond_style      class2
#bond_coeff	1 4.7 5.76525  0.0 2.882625 #kcal/mol
#bond_coeff	1 4.7 0.25ev 0.0 0.125ev

#special_bonds fene angle no dihedral no
special_bonds lj 0.0 1.0 1.0

#####equi1_pair.py data
include pairfile_no_soft
bond_style      class2
bond_coeff	1 4.700000 5.765250 0.000000 2.882625 #kcal/mol

pair_style lj/expand 25
pair_modify shift yes
pair_coeff * * 1.129989 4.700000 0.000000 9.870000

pair_coeff 1 1 1.129989 4.700000 0.000000 5.275572
pair_coeff 2 2 1.129989 4.700000 0.000000 5.275572
pair_coeff 3 3 1.129989 4.700000 0.000000 5.275572
pair_coeff 4 4 1.129989 4.700000 0.000000 5.275572
pair_coeff 5 5 1.129989 4.700000 0.000000 5.275572
pair_coeff 6 6 1.129989 4.700000 0.000000 5.275572
pair_coeff 7 7 1.129989 4.700000 0.000000 5.275572
pair_coeff 8 8 1.129989 4.700000 0.000000 5.275572
pair_coeff 9 9 1.129989 4.700000 0.000000 5.275572
pair_coeff 10 10 1.129989 4.700000 0.000000 5.275572
pair_coeff 11 11 1.129989 4.700000 0.000000 5.275572
pair_coeff 12 12 1.129989 4.700000 0.000000 5.275572
pair_coeff 13 13 1.129989 4.700000 0.000000 5.275572
pair_coeff 14 14 1.129989 4.700000 0.000000 5.275572
pair_coeff 15 15 1.129989 4.700000 0.000000 5.275572
pair_coeff 16 16 1.129989 4.700000 0.000000 5.275572

pair_coeff * 17 4.519956 4.700000 37.600000 9.870000
pair_coeff 17 17 0.282497 4.700000 37.600000 5.275572
####equi1_pair.py complete

#####################################################
# Equilibration Stage 2 (NVT deform at 1000 K)
group np type 17
1 atoms in group np
fix         1st all nvt temp ${temperature} ${temperature} ${damping}
fix         1st all nvt temp 1000 ${temperature} ${damping}
fix         1st all nvt temp 1000 1000 ${damping}
fix         1st all nvt temp 1000 1000 20
fix         2nd np move linear 0 0 0 units box
fix         3rd all deform 10 x final 0.0 ${deformto} y final 0.0 ${deformto} z final 0.0 ${deformto} units box
fix         3rd all deform 10 x final 0.0 100 y final 0.0 ${deformto} z final 0.0 ${deformto} units box
fix         3rd all deform 10 x final 0.0 100 y final 0.0 100 z final 0.0 ${deformto} units box
fix         3rd all deform 10 x final 0.0 100 y final 0.0 100 z final 0.0 100 units box
fix   		4th all momentum 1 linear 1 1 1
thermo_style	custom step temp press epair ebond vol pxx pyy pzz lx ly lz
thermo          1000
timestep	2
dump		1 all dcd 1000 ${simname}.dcd
dump		1 all dcd 1000 deformation.dcd
reset_timestep  0
run		${runtimes}
run		1000000
WARNING: One or more atoms are time integrated more than once (modify.cpp:220)
WARNING: Inconsistent image flags (domain.cpp:594)
Memory usage per processor = 4.37598 Mbytes
Step Temp Press E_pair E_bond Volume Pxx Pyy Pzz Lx Ly Lz 
       0    841.36539    -66.05507    2509.9544    8766.9121      1712602   -49.975835   -134.86925   -13.320129     119.6425     119.6425     119.6425 
    1000    837.90408   -66.339597    2538.1905    8747.8924    1711758.6    -28.51623    -158.1677    -12.33486    119.62286    119.62286    119.62286 
    2000    833.91718    104.78336    2495.1841    8802.0326    1710915.5    65.729483    95.472265    153.14834    119.60321    119.60321    119.60321 
    3000     835.7603    69.203183    2500.0204    8790.2594    1710072.7    38.397475    100.69649    68.515585    119.58357    119.58357    119.58357 
    4000    795.43225    -177.1577    2527.8557    8884.0458    1709230.1   -152.79219   -185.83427   -192.84664    119.56393    119.56393    119.56393 
    5000    824.07845    26.410074    2506.4461    8816.6514    1708387.9     20.43136    11.478378    47.320484    119.54429    119.54429    119.54429 
    6000    827.46097    13.807746    2520.3078    8791.3372    1707545.9    12.590977    20.354122    8.4781388    119.52464    119.52464    119.52464 
    7000    848.68937    7.0109311    2502.8716    8742.7749    1706704.2   -13.035458    21.358227    12.710025      119.505      119.505      119.505 
    8000    842.32099    52.059744    2446.8846    8816.7419    1705862.8    69.676126   -1.1624966    87.665602    119.48536    119.48536    119.48536 
    9000     854.6605   -32.828403    2353.5788     8871.773    1705021.6   -19.182918   -30.385219   -48.917072    119.46572    119.46572    119.46572 
   10000    851.93162    67.638386     2471.335    8760.4862    1704180.7    162.75531     42.41474   -2.2548948    119.44607    119.44607    119.44607 
   11000     844.1374    -69.18465    2482.0165    8772.3673    1703340.1    -80.35791    -10.61596   -116.58008    119.42643    119.42643    119.42643 
   12000    823.26571    10.384626    2521.2166    8795.7775    1702499.8   -50.568987    37.621091    44.101772    119.40679    119.40679    119.40679 
   13000       827.78    10.111793    2523.8192    8778.0053    1701659.8   -21.583108    93.909412   -41.990926    119.38715    119.38715    119.38715 
   14000    824.21619     9.929975    2460.2455    8851.1495      1700820   -92.557607     34.43244    87.915092     119.3675     119.3675     119.3675 
   15000     851.8745     25.43001    2472.1492    8753.5482    1699980.5    35.834175   0.30821801    40.147636    119.34786    119.34786    119.34786 
   16000    832.91267    37.480518    2423.3969    8858.9524    1699141.3   -78.945475    55.445469    135.94156    119.32822    119.32822    119.32822 
   17000    841.09728     41.98913    2375.7026    8880.1478    1698302.3    53.297335    17.096209    55.573845    119.30858    119.30858    119.30858 
   18000    848.21583     38.18034    2451.9244    8780.9114    1697463.7    115.70156    38.460832    -39.62137    119.28893    119.28893    119.28893 
   19000    815.04486   -41.113664    2533.9069    8799.0133    1696625.3   -19.111162   -34.185387   -70.044443    119.26929    119.26929    119.26929 
   20000    846.96652    6.5283877    2476.3075    8758.1249    1695787.1    88.289876    54.054447   -122.75916    119.24965    119.24965    119.24965 
   21000    845.45862   -11.627558    2362.6416    8874.9881    1694949.3   -48.418248    17.461322   -3.9257491    119.23001    119.23001    119.23001 
   22000    845.71934    25.406297    2429.1498    8806.3577    1694111.7      69.0714    63.379071   -56.231579    119.21036    119.21036    119.21036 
   23000    845.90253    48.920733    2421.5145    8812.0713    1693274.5    106.12002     25.06606     15.57612    119.19072    119.19072    119.19072 
   24000    858.37277    33.486564    2403.3492    8790.7567    1692437.4    26.262418   -34.057109    108.25438    119.17108    119.17108    119.17108 
   25000    863.82529   -46.481138    2349.8084     8826.249    1691600.7    23.266827   -35.646494   -127.06375    119.15144    119.15144    119.15144 
   26000    839.69672   -1.7542178    2387.1454    8861.2988    1690764.3    -34.70999    108.16058   -78.713246    119.13179    119.13179    119.13179 
   27000    840.31353    80.992194    2450.3012    8795.1253    1689928.1    103.31016    81.397147    58.269278    119.11215    119.11215    119.11215 
   28000     835.7131   -57.298575    2479.5475     8778.503    1689092.2   -98.566203    26.051494   -99.381016    119.09251    119.09251    119.09251 
   29000     848.8529   -59.588626    2386.0273    8830.8982    1688256.5   -57.027092   -149.85326    28.114472    119.07287    119.07287    119.07287 
   30000    852.05588    45.660997    2363.2372    8842.4747    1687421.2    4.7559887    56.855723    75.371279    119.05322    119.05322    119.05322 
   31000    847.73343   -42.529647    2388.4627    8829.1587    1686586.1   -44.802301   -87.740216     4.953576    119.03358    119.03358    119.03358 
   32000    844.14726    47.472485    2385.4678     8841.752    1685751.3    81.997539    63.818918   -3.3990025    119.01394    119.01394    119.01394 
   33000     853.7396     105.9922    2390.6328    8806.3562    1684916.8    115.74789    140.57375    61.654974     118.9943     118.9943     118.9943 
   34000    830.45348    3.1006229    2468.8045    8797.9646    1684082.5    -115.6153    61.539027    63.378142    118.97465    118.97465    118.97465 
   35000    824.48923   -76.966547     2493.242    8790.5721    1683248.5    -174.2361   -28.809732   -27.853803    118.95501    118.95501    118.95501 
   36000    824.48051    57.484705    2494.0343     8788.547    1682414.8    33.533118    99.209081    39.711916    118.93537    118.93537    118.93537 
   37000    822.20431   -29.065096    2450.8635    8837.6123    1681581.4   -6.7655255   -25.604376   -54.825387    118.91573    118.91573    118.91573 
   38000    838.29692   -5.9509928    2383.0078    8855.0654    1680748.2   -120.06413    75.426358    26.784794    118.89608    118.89608    118.89608 
   39000    843.27554   -27.326194    2393.6112    8827.8794    1679915.4   -66.685249   -46.112691    30.819358    118.87644    118.87644    118.87644 
   40000    844.05391    16.016299    2481.5607    8736.5858    1679082.8   -38.955952    16.700214    70.304635     118.8568     118.8568     118.8568 
   41000    835.96464   -51.841634    2521.7014    8719.8388    1678250.4   -40.694259    14.569782   -129.40042    118.83716    118.83716    118.83716 
   42000     814.0782   -18.245896    2445.9203    8861.4956    1677418.4   -45.138875   -53.012766    43.413954    118.81752    118.81752    118.81752 
   43000    851.75683   -26.039364    2354.2307    8836.9287    1676586.6   -13.083761   -37.609483   -27.424847    118.79787    118.79787    118.79787 
   44000    831.08174    3.8502235    2438.9031     8814.324    1675755.1   -37.555916     16.08022    33.026367    118.77823    118.77823    118.77823 
   45000    837.46662   -56.478664    2327.2369     8905.035    1674923.9   -145.65267   -25.988428    2.2051026    118.75859    118.75859    118.75859 
   46000     845.7839    -24.61211     2398.348    8807.2443    1674092.9   -1.3099809   -33.283616   -39.242733    118.73895    118.73895    118.73895 
   47000    834.79084    15.587344    2468.0119    8769.7213    1673262.2   -13.046571    79.438999   -19.630396     118.7193     118.7193     118.7193 
   48000    815.07662   -72.359208    2472.3272    8824.1892    1672431.8    65.085423   -125.37478   -156.78827    118.69966    118.69966    118.69966 
   49000    837.74463    19.085601    2431.0205    8795.3569    1671601.7    135.25299   -94.281578     16.28539    118.68002    118.68002    118.68002 
   50000    856.92618   -194.83538    2353.3321    8813.1951    1670771.9   -211.54226   -180.59657   -192.36731    118.66038    118.66038    118.66038 
   51000    832.00022    46.549131    2456.3494    8784.5596    1669942.3   -46.908562    187.87345   -1.3174988    118.64073    118.64073    118.64073 
   52000    815.80136    44.106197    2448.7988    8840.2436      1669113   -22.656464    135.94526    19.029793    118.62109    118.62109    118.62109 
   53000    844.22841   -3.5626261    2404.5715    8796.2275    1668283.9   -37.103251    61.906721   -35.491348    118.60145    118.60145    118.60145 
   54000    803.88348    65.472106    2565.0354    8757.6868    1667455.2    68.007893   -22.961405    151.36983    118.58181    118.58181    118.58181 
   55000    834.14599     22.79125    2491.8791    8737.4687    1666626.7    62.242829   -34.103781    40.234702    118.56216    118.56216    118.56216 
   56000    856.84235   -58.583338      2426.62    8732.1652    1665798.5   -181.61063    24.055812   -18.195192    118.54252    118.54252    118.54252 
   57000     852.6702   -86.056262    2389.2036    8781.0978    1664970.6    52.060656   -102.20836   -208.02108    118.52288    118.52288    118.52288 
   58000    822.76077   -81.984626     2384.234     8875.937    1664142.9    -153.4589   -65.797943   -26.697037    118.50324    118.50324    118.50324 
   59000    835.10414    79.520487    2439.3495    8782.1747    1663315.5    30.343715   -2.5591387    210.77689    118.48359    118.48359    118.48359 
   60000    837.37665   -80.600622    2351.0128    8862.3763    1662488.4   -116.36497   -46.267977   -79.168919    118.46395    118.46395    118.46395 
   61000    825.28165    137.59909    2484.5453    8764.4382    1661661.6    164.82463    247.38833   0.58430603    118.44431    118.44431    118.44431 
   62000    833.92672    22.900265    2447.1438    8773.9581      1660835   0.46675235    9.0310271    59.203016    118.42467    118.42467    118.42467 
   63000    798.54426   -54.411655    2427.8534    8900.1527    1660008.7   -17.061363   -126.14701   -20.026586    118.40502    118.40502    118.40502 
   64000    855.06501    2.7872027    2378.1925    8776.0683    1659182.7   -18.287781    7.7380738    18.911315    118.38538    118.38538    118.38538 
   65000    838.02677    16.332036    2399.2734    8805.8567      1658357    10.445006    25.226362     13.32474    118.36574    118.36574    118.36574 
   66000    829.13749    155.59945    2494.7519    8736.1853    1657531.5     155.6024    146.73146    164.46448    118.34609    118.34609    118.34609 
   67000    826.28947     173.8388    2425.3653    8812.9154    1656706.3    165.19683    235.30359    121.01598    118.32645    118.32645    118.32645 
   68000     816.2954    29.501931    2473.8369    8793.7709    1655881.4    38.145374       12.774    37.586419    118.30681    118.30681    118.30681 
   69000    837.51506   -39.144405    2385.9731    8815.4884    1655056.8   -47.158106     -27.4295   -42.845609    118.28717    118.28717    118.28717 
   70000    814.69303   -127.02203    2411.4427     8858.522    1654232.4   -175.95815   -55.389244    -149.7187    118.26752    118.26752    118.26752 
   71000    793.95026   -12.301279    2507.1684    8824.9646    1653408.3   -99.006658   -24.970593    87.073412    118.24788    118.24788    118.24788 
   72000     817.6183    13.883746    2438.7961     8819.498    1652584.5    30.424045    55.497266   -44.270073    118.22824    118.22824    118.22824 
   73000    811.74639    10.462067    2438.0566    8837.3698    1651760.9   -24.643246    173.47613   -117.44668     118.2086     118.2086     118.2086 
   74000    812.56527    2.8759091     2497.714    8774.1526    1650937.7   -7.8035695     26.06806   -9.6367631    118.18895    118.18895    118.18895 
   75000    826.24522   -24.843894    2489.5887    8739.2931    1650114.7   -35.165413    -18.10029    -21.26598    118.16931    118.16931    118.16931 
   76000    840.38328   -73.403946    2333.6111    8850.7823    1649291.9   -56.083986   -28.657328   -135.47052    118.14967    118.14967    118.14967 
   77000    827.17985   -91.122385    2378.3287     8845.351    1648469.5   -117.57422   -105.76495   -50.027987    118.13003    118.13003    118.13003 
   78000    789.38564   -67.752493    2413.2547    8924.4407    1647647.3   -147.10601   -129.42167    73.270206    118.11038    118.11038    118.11038 
   79000    823.56188    66.933075    2413.7769    8818.3846    1646825.4   -6.5702282    54.799534    152.56992    118.09074    118.09074    118.09074 
   80000    834.03858    53.973678    2343.0517    8856.0156    1646003.8   -6.8677549    117.97044    50.818347     118.0711     118.0711     118.0711 
   81000    829.14478    6.4409686     2448.009    8764.8499    1645182.4   -51.546394   -13.263304    84.132603    118.05146    118.05146    118.05146 
   82000    841.46342    -52.68839    2427.3377    8746.6813    1644361.3   -41.350169    15.954209   -132.66921    118.03181    118.03181    118.03181 
   83000    823.56736   -31.539246    2434.7151    8792.7732    1643540.5    40.025454   -95.759182   -38.884011    118.01217    118.01217    118.01217 
   84000    825.54557    46.185683    2458.2916     8761.685      1642720    35.609386    4.2218685    98.725796    117.99253    117.99253    117.99253 
   85000    824.17917   -35.293515    2406.5779      8816.46    1641899.7   -125.93024    4.7958066    15.253891    117.97289    117.97289    117.97289 
   86000    818.57941   -45.971027    2442.0361    8796.9775    1641079.7   -35.872944   -1.8480612   -100.19208    117.95324    117.95324    117.95324 
   87000    829.06139   -5.2228452    2382.7436    8823.0901      1640260    3.0226497   -30.083337    11.392151     117.9336     117.9336     117.9336 
   88000    830.98669  -0.54770671    2421.8193    8776.8339    1639440.6   -105.79723    33.013509    71.140597    117.91396    117.91396    117.91396 
   89000    791.10372   -58.126225    2522.5006     8796.433    1638621.4   -45.438602   -85.649747   -43.290325    117.89432    117.89432    117.89432 
   90000     832.3876    133.60166    2398.1201    8793.5294    1637802.5    147.07377    218.69337    35.037829    117.87467    117.87467    117.87467 
   91000    836.14292    32.659547     2404.559    8774.5339    1636983.9   -13.379888  -0.92779988    112.28633    117.85503    117.85503    117.85503 
   92000    835.99233    19.320802    2385.6898     8792.466    1636165.5     28.08141    56.908134   -27.027137    117.83539    117.83539    117.83539 
   93000    825.81211   -91.672223    2422.9571    8785.2976    1635347.4   -95.836443   -7.5280978   -171.65213    117.81575    117.81575    117.81575 
   94000    826.90038   -38.608046    2430.2295    8773.5086    1634529.6   -32.407013    3.1766171   -86.593742     117.7961     117.7961     117.7961 
   95000    838.23123   -61.682651    2381.1281    8786.7518    1633712.1   -159.69238    2.5875012   -27.943077    117.77646    117.77646    117.77646 
   96000    837.97562    -9.797054     2372.366    8795.0853    1632894.8    20.322847   -20.031883   -29.682126    117.75682    117.75682    117.75682 
   97000    827.73084    62.239872    2389.7673    8807.5339    1632077.8     96.10254    18.297976      72.3191    117.73718    117.73718    117.73718 
   98000    809.73684   0.52042316    2382.1425    8868.8329    1631261.1   -100.96137    121.38159   -18.858957    117.71753    117.71753    117.71753 
   99000    822.07896    12.739549    2438.1954     8773.863    1630444.6    78.955937   -11.487677   -29.249612    117.69789    117.69789    117.69789 
  100000    843.96034   -41.346232    2287.0107    8856.9991    1629628.5   -38.765712   -96.126512    10.853528    117.67825    117.67825    117.67825 
  101000    813.63651    63.900991    2396.8816    8838.5942    1628812.6    52.240976     44.75328    94.708716    117.65861    117.65861    117.65861 
  102000    822.76784   -5.4955082    2363.8586    8842.6025    1627996.9   -31.630017    30.400014   -15.256521    117.63896    117.63896    117.63896 
  103000    845.24638   -36.272134     2329.138    8807.3472    1627181.6    28.357649   -33.266169   -103.90788    117.61932    117.61932    117.61932 
  104000    841.77379   -37.303756    2396.4296    8749.4084    1626366.5    1.4895548   -106.58037   -6.8204568    117.59968    117.59968    117.59968 
  105000    811.20411     23.23222    2409.6269     8828.057    1625551.7   -77.863306    84.790896    62.769069    117.58004    117.58004    117.58004 
  106000    804.39012    30.083999     2482.878    8774.5417    1624737.1    57.253693   -19.729297    52.727601    117.56039    117.56039    117.56039 
  107000    828.13763    4.2264987    2363.2279    8820.4544    1623922.9    61.987665    10.448908   -59.757076    117.54075    117.54075    117.54075 
  108000    816.32379   -8.0510446    2400.1442    8818.2219    1623108.9   -21.377453    27.510816   -30.286497    117.52111    117.52111    117.52111 
  109000    824.74345    24.528261    2388.1762    8803.4391    1622295.2     111.1701    -11.55269   -26.032629    117.50147    117.50147    117.50147 
  110000    835.18883   -55.944119    2357.4271    8801.3567    1621481.7   -3.1529851   -56.394746   -108.28462    117.48183    117.48183    117.48183 
  111000    832.47611    4.6455101     2433.215     8732.283    1620668.5    5.5755745    -37.03741    45.398366    117.46218    117.46218    117.46218 
  112000    795.60376   -64.959592    2445.7729    8831.3441    1619855.6    -104.7332   -20.095848   -70.049731    117.44254    117.44254    117.44254 
  113000    807.70415   -27.558939    2503.8965    8734.8283      1619043    12.946913   -45.696422   -49.927307     117.4229     117.4229     117.4229 
  114000    816.90259    7.8465855    2331.8271      8877.88    1618230.6   -130.58239    64.618518    89.503626    117.40326    117.40326    117.40326 
  115000    808.29554     97.47337    2524.3991     8710.293    1617418.5    124.21712    65.704672    102.49832    117.38361    117.38361    117.38361 
  116000    825.49508    65.857945    2356.2909    8824.5775    1616606.7    150.66868   -18.899501    65.804653    117.36397    117.36397    117.36397 
  117000    811.87186    53.215769    2379.4947    8841.7781    1615795.2   -37.230809    137.87797    59.000147    117.34433    117.34433    117.34433 
  118000    817.18654   -62.537441    2388.9541    8814.6615    1614983.9    28.403511    -127.6655   -88.350336    117.32469    117.32469    117.32469 
  119000    830.87146    118.99834    2386.5007    8774.0829    1614172.9    153.76377    56.723804    146.50745    117.30504    117.30504    117.30504 
  120000    822.89315    29.192067    2454.7588    8728.8758    1613362.1    90.801818    49.631507   -52.857124     117.2854     117.2854     117.2854 
  121000    823.13907    13.362805    2424.5287     8757.114    1612551.7   -71.469604   -28.738159    140.29618    117.26576    117.26576    117.26576 
  122000    778.72562   -24.137843    2468.2496    8848.0878    1611741.5    7.5802328   -81.341688    1.3479274    117.24612    117.24612    117.24612 
  123000    798.77803    151.52437    2415.0248    8838.8653    1610931.6    159.17067    57.726424      237.676    117.22647    117.22647    117.22647 
  124000    825.69866   -30.815721    2366.4431    8804.0035    1610121.9    21.545009   -35.171107   -78.821064    117.20683    117.20683    117.20683 
  125000    827.67239    -94.52806    2424.3262    8739.1481    1609312.5   -106.55905   -147.70073   -29.324402    117.18719    117.18719    117.18719 
  126000    808.15084    17.404637    2402.5898    8819.2224    1608503.4   -59.888696    116.36918   -4.2665675    117.16755    117.16755    117.16755 
  127000    797.60321   -48.999019    2526.2522     8726.734    1607694.6   -67.753837    22.210765   -101.45398     117.1479     117.1479     117.1479 
  128000    825.92619    66.075982    2455.2969     8709.908      1606886    93.577125     140.9877   -36.336878    117.12826    117.12826    117.12826 
  129000    841.36438    -99.19338    2376.1848    8740.4563    1606077.7   -44.384077   -107.24539   -145.95068    117.10862    117.10862    117.10862 
  130000    815.30031   -68.259434    2434.3933    8760.7938    1605269.7   -36.702125    -20.44731   -147.62887    117.08898    117.08898    117.08898 
  131000    818.44099     -3.89807    2338.9251    8845.2531      1604462   -178.55161    75.108025    91.749379    117.06933    117.06933    117.06933 
  132000    837.38247    62.291548     2363.558    8761.4811    1603654.5    146.97613   -13.917178     53.81569    117.04969    117.04969    117.04969 
  133000    824.69864    132.33725    2360.3825    8802.1194    1602847.3     110.5925    106.21888    180.20037    117.03005    117.03005    117.03005 
  134000    817.15525   -102.19391    2301.1768    8883.3245    1602040.3   -145.08082    2.2372403   -163.73815     117.0104     117.0104     117.0104 
  135000    775.36852    127.24998    2529.1871    8781.6158    1601233.7    361.40407   -60.093976    80.439854    116.99076    116.99076    116.99076 
  136000    797.20425    8.2931776    2413.2805    8829.6561    1600427.3    21.447095     13.64545   -10.213012    116.97112    116.97112    116.97112 
  137000    790.00648   -10.772539    2528.7558     8734.897    1599621.2   -28.178144    2.2572562   -6.3967301    116.95148    116.95148    116.95148 
  138000    796.15559   -74.463382    2436.3038    8807.4416    1598815.3   -40.030143   -101.38701   -81.972988    116.93183    116.93183    116.93183 
  139000    791.16137    35.327393    2388.6927    8868.9824    1598009.7    70.413763     44.79924   -9.2308228    116.91219    116.91219    116.91219 
  140000    824.02384    90.517351    2413.2828    8742.8284    1597204.4     104.6472     62.60027    104.30459    116.89255    116.89255    116.89255 
  141000    829.88256   -58.134436    2346.1846    8790.9563    1596399.4   -145.83108    44.556681   -73.128906    116.87291    116.87291    116.87291 
  142000    793.08764   -107.12217     2368.076    8880.3908    1595594.6   -98.848794   -81.067072   -141.45066    116.85326    116.85326    116.85326 
  143000    805.18107   -39.304472    2438.4197    8771.7591    1594790.1   -48.599743    5.0445144   -74.358189    116.83362    116.83362    116.83362 
  144000    840.77167   -49.559695     2250.144    8850.2365    1593985.9   -49.585479   -116.03288    16.939277    116.81398    116.81398    116.81398 
  145000    833.72305   -73.554405    2353.5083    8767.0362    1593181.9   -55.899595   -23.896132   -140.86749    116.79434    116.79434    116.79434 
  146000    811.91496    20.900163    2428.0873    8757.7826    1592378.2   -62.135529    82.281917    42.554101    116.77469    116.77469    116.77469 
  147000    816.79061   -2.6684305    2322.5858    8846.8971    1591574.8   -44.600837    57.833202   -21.237656    116.75505    116.75505    116.75505 
  148000     800.5183   -52.950566    2433.9067     8784.034    1590771.6   -3.3747256   -112.07121   -43.405765    116.73541    116.73541    116.73541 
  149000    794.38482    25.037893    2395.4374    8839.8181    1589968.8    26.073049    33.055124    15.985505    116.71577    116.71577    116.71577 
  150000    823.01909    9.5150887    2407.8009    8738.9699    1589166.1    117.17216     -51.5152   -37.111693    116.69612    116.69612    116.69612 
  151000     794.7679   -59.541748    2454.7855    8777.0793    1588363.8   -68.549588   -48.671635   -61.404022    116.67648    116.67648    116.67648 
  152000    776.67939   -53.435496    2383.8732    8901.9534    1587561.7   -77.439353   -36.342477   -46.524659    116.65684    116.65684    116.65684 
  153000    807.59511    43.165312    2488.9906      8701.32    1586759.9     120.5329   -25.460958    34.423992     116.6372     116.6372     116.6372 
  154000    841.05948   -54.916363    2319.2885    8767.6658    1585958.4   -63.324223   -83.489066   -17.935801    116.61755    116.61755    116.61755 
  155000    803.87642    199.48514    2472.4761    8726.7277    1585157.2    293.87117    217.95141    86.632834    116.59791    116.59791    116.59791 
  156000    789.18136    -4.865947    2462.0989    8780.9221    1584356.2    24.090267    24.067538   -62.755646    116.57827    116.57827    116.57827 
  157000    811.57462    14.563621    2374.7632    8798.0792    1583555.4   -57.648022    109.77109   -8.4322051    116.55863    116.55863    116.55863 
  158000    773.92033    43.707246    2413.6347    8873.0985      1582755    145.55016    14.018164   -28.446582    116.53898    116.53898    116.53898 
  159000    803.19827  -0.12842754    2333.6475    8862.5657    1581954.8   -49.810377  -0.57360737    49.998702    116.51934    116.51934    116.51934 
  160000    811.32855   -7.8954754    2405.4003    8764.6498    1581154.9    41.181433   -143.50014    78.632282     116.4997     116.4997     116.4997 
  161000    804.75759     53.99738    2335.4793     8853.546    1580355.3    75.426161    19.495284    67.070694    116.48006    116.48006    116.48006 
  162000    793.16975   -84.547264     2375.572     8847.756    1579555.9   -52.609052   -128.37615   -72.656588    116.46041    116.46041    116.46041 
  163000    823.61685    106.43443    2434.5679    8694.5021    1578756.8    13.391343    161.73571    144.17625    116.44077    116.44077    116.44077 
  164000     811.2095    -85.33935     2210.648    8955.2101      1577958   -58.266689   -31.063557    -166.6878    116.42113    116.42113    116.42113 
  165000    823.56944    88.301559    2331.4775    8795.2505    1577159.4    179.67935    109.08513   -23.859801    116.40149    116.40149    116.40149 
  166000    816.34819   -61.723468    2339.7994    8807.6877    1576361.1   -5.3144829   -62.806679   -117.04924    116.38184    116.38184    116.38184 
  167000    800.98896    34.960914    2416.5622    8776.5923    1575563.1    73.744299    22.836715    8.3017298     116.3622     116.3622     116.3622 
  168000    817.79032    63.980412    2334.9039    8805.7615    1574765.3    131.94592    89.460907   -29.465592    116.34256    116.34256    116.34256 
  169000    803.76093   -10.774161    2339.9891     8842.316    1573967.9   -79.348037    16.844568    30.180985    116.32292    116.32292    116.32292 
  170000    827.57513   -3.8931302    2367.0614    8741.0948    1573170.6   -56.331253   -1.2032252    45.855088    116.30327    116.30327    116.30327 
  171000    820.96706   -104.64766    2314.5388    8812.8957    1572373.7   -14.523601   -105.45148   -193.96792    116.28363    116.28363    116.28363 
  172000    791.76841    78.648762    2368.2583    8846.7721      1571577    35.943506    138.50788    61.494896    116.26399    116.26399    116.26399 
  173000    797.26783    80.762903    2440.8761    8755.5688    1570780.6    32.736397    47.883101    161.66921    116.24435    116.24435    116.24435 
  174000    799.34454    48.833726    2453.6614    8735.5044    1569984.5    -4.735436    75.989646    75.246969    116.22471    116.22471    116.22471 
  175000     797.4488   -11.707245    2441.9848    8751.6218    1569188.6   -14.816505   -60.798779     40.49355    116.20506    116.20506    116.20506 
  176000    794.33701  -0.58764233      2380.53    8821.4536      1568393    96.187846   -52.941613    -45.00916    116.18542    116.18542    116.18542 
  177000    790.33276    54.121737     2381.923    8831.1158    1567597.7    107.90632   -46.307925    100.76682    116.16578    116.16578    116.16578 
  178000    801.90905   -2.7724174    2388.1879    8788.1521    1566802.6    58.015717   -71.221018    4.8880485    116.14614    116.14614    116.14614 
  179000    812.63609     18.65085    2382.0775    8760.1052    1566007.8    33.958053   -19.351479    41.345976    116.12649    116.12649    116.12649 
  180000    791.59762    28.408292    2449.8922    8755.3689    1565213.3   -45.256944    7.1448517    123.33697    116.10685    116.10685    116.10685 
  181000    818.97911   -44.433329    2355.5291    8765.1542      1564419   -65.610304   -40.554118   -27.135566    116.08721    116.08721    116.08721 
  182000    790.93953   -13.491112    2346.5549    8858.6229    1563625.1   -61.843696    59.849199   -38.478839    116.06757    116.06757    116.06757 
  183000    793.45645   -34.971494    2391.4908    8804.6877    1562831.3     56.54069   -48.256185   -113.19898    116.04792    116.04792    116.04792 
  184000    771.08951    24.762842    2429.5731    8833.7301    1562037.9   -101.15258     118.2898    57.151301    116.02828    116.02828    116.02828 
  185000    778.36207   -69.472618    2431.7354    8807.9712    1561244.7   -93.242044   -52.068729    -63.10708    116.00864    116.00864    116.00864 
  186000    790.04775   -70.181791    2405.1871    8797.4626    1560451.8   -37.384521    69.574768   -242.73562      115.989      115.989      115.989 
  187000    820.35873    11.297127    2366.8293    8742.0906    1559659.1   -65.502481    152.90922   -53.515362    115.96935    115.96935    115.96935 
  188000    813.61315    48.089308    2447.4764    8681.0075    1558866.8    38.426063    40.759396    65.082465    115.94971    115.94971    115.94971 
  189000    786.81444    45.070567    2408.6817    8799.8705    1558074.7    128.22759   -80.823701    87.807813    115.93007    115.93007    115.93007 
  190000    792.45391   -27.052205    2333.8327    8856.4499    1557282.8   -82.065434    23.769061   -22.860241    115.91043    115.91043    115.91043 
  191000    827.72051   -32.567689    2293.2684    8788.1363    1556491.3     -51.7149   -21.980705   -24.007461    115.89078    115.89078    115.89078 
  192000    800.21035    92.576455    2384.1508    8779.9305      1555700    125.88208    129.90888    21.938406    115.87114    115.87114    115.87114 
  193000    781.32152    19.789658     2483.588    8737.0719    1554908.9    79.436143   -16.424268   -3.6428999     115.8515     115.8515     115.8515 
  194000    804.58871   -78.916685    2367.6471    8780.7774    1554118.2   -36.991937   -78.629556   -121.12856    115.83186    115.83186    115.83186 
  195000    801.26446    88.685611    2345.7957      8811.65    1553327.7    54.986121    138.84746     72.22325    115.81221    115.81221    115.81221 
  196000     804.1823    145.86572    2416.0822    8731.1211    1552537.4    38.926781    127.95021    270.72016    115.79257    115.79257    115.79257 
  197000    809.06232    71.160182    2367.8811    8763.2096    1551747.5    89.429936     73.71205     50.33856    115.77293    115.77293    115.77293 
  198000    810.79127   -90.013169    2359.2426    8765.0737    1550957.8   -97.029896    -50.07229   -122.93732    115.75329    115.75329    115.75329 
  199000    757.18708   -33.307915    2536.4979    8750.3917    1550168.4   -91.830721    46.674515   -54.767538    115.73364    115.73364    115.73364 
  200000    787.01665    149.03548    2424.9905    8769.6237    1549379.2    133.81612    217.02989    96.260434      115.714      115.714      115.714 
  201000    797.37278     4.619216    2302.9859     8858.827    1548590.3   -19.462401   -36.883457    70.203506    115.69436    115.69436    115.69436 
  202000    825.69747    9.8971794      2278.18    8796.1056    1547801.7   -74.493423    73.921224    30.263738    115.67471    115.67471    115.67471 
  203000    803.38406    17.134993    2332.9523    8808.0369    1547013.3   -77.797854      14.3295    114.87333    115.65507    115.65507    115.65507 
  204000    824.56015    53.660855    2310.6898     8764.482    1546225.2    32.602628    81.871808    46.508129    115.63543    115.63543    115.63543 
  205000    786.06273    10.108395    2364.0825    8827.5097    1545437.4    25.513288    95.580023   -90.768125    115.61579    115.61579    115.61579 
  206000    798.08457    77.087552    2413.6089    8740.1311    1544649.9    42.759048    84.384259    104.11935    115.59614    115.59614    115.59614 
  207000    777.70406   -121.69966    2403.4487     8811.004    1543862.6   -165.27445   -58.212069   -141.61245     115.5765     115.5765     115.5765 
  208000    800.91054    41.438541    2341.2563    8801.2995    1543075.6    29.741483    75.357901    19.216239    115.55686    115.55686    115.55686 
  209000    808.00231    26.801071    2282.8456    8836.9759    1542288.8     38.12482   -35.051151    77.329544    115.53722    115.53722    115.53722 
  210000    815.41708   -87.184327    2259.6307    8836.2144    1541502.3   -127.04923   -84.028604   -50.475145    115.51757    115.51757    115.51757 
  211000     783.7261   -95.341166    2397.5563    8793.7417    1540716.1   -61.381999   -87.996306   -136.64519    115.49793    115.49793    115.49793 
  212000     791.1161    102.64103     2406.926    8760.5221    1539930.2    97.484661    122.22563    88.212812    115.47829    115.47829    115.47829 
  213000    778.54616    13.780459    2416.1357    8788.4919    1539144.5   -45.187307    42.186456    44.342227    115.45865    115.45865    115.45865 
  214000    824.33232    58.171203    2303.8048    8760.0456    1538359.1    117.45749    47.060872    9.9952429      115.439      115.439      115.439 
  215000    783.66688    3.6392567    2392.9296    8793.7984      1537574   -20.947364    67.315861   -35.450727    115.41936    115.41936    115.41936 
  216000    776.05754   -65.324985    2391.9228    8816.5122    1536789.1    121.49563   -77.606719   -239.86387    115.39972    115.39972    115.39972 
  217000    756.44583   -29.559033    2429.7418    8837.3654    1536004.5    -52.86636    4.7609956   -40.571735    115.38008    115.38008    115.38008 
  218000    796.07059   -25.613141    2351.7418    8793.3315    1535220.1   -65.050934   -86.630821    74.842331    115.36043    115.36043    115.36043 
  219000     806.6821    41.490413     2388.277     8722.737    1534436.1     82.55331   -26.549966    68.467894    115.34079    115.34079    115.34079 
  220000    809.64126   -147.18371    2293.9113    8807.0951    1533652.2   -191.02744   -91.291005   -159.23269    115.32115    115.32115    115.32115 
  221000    800.24211    63.976443    2321.4516      8806.92    1532868.7    30.296602    146.80993      14.8228    115.30151    115.30151    115.30151 
  222000    799.32341    37.258811    2337.2515    8792.6979    1532085.4   -17.427135    119.24663    9.9569427    115.28186    115.28186    115.28186 
  223000    826.72553    14.116361    2265.5545    8779.6733    1531302.4   -30.663131    71.459516    1.5526984    115.26222    115.26222    115.26222 
  224000    810.03371    49.891891    2372.4845    8722.5672    1530519.7    91.205073    81.117264   -22.646663    115.24258    115.24258    115.24258 
  225000    777.36604   -4.8780428    2401.9187    8791.5958    1529737.2    32.711088    26.717332   -74.062548    115.22294    115.22294    115.22294 
  226000    800.51548    6.7089331    2351.2967    8770.4744      1528955     85.49143   -26.976157   -38.388474    115.20329    115.20329    115.20329 
  227000    806.27644   -56.544803    2367.0692    8735.7897    1528173.1    -122.3652   -8.6735753   -38.595633    115.18365    115.18365    115.18365 
  228000    810.86996   -59.261854    2320.4401    8767.2528    1527391.4   -20.721539   -88.729707   -68.334317    115.16401    115.16401    115.16401 
  229000    791.17543    0.6888383     2357.394    8788.9321      1526610    34.122104    70.906881   -102.96247    115.14437    115.14437    115.14437 
  230000    799.79232   -57.753704    2301.5642    8817.3348    1525828.8    5.6730792   -103.06284   -75.871346    115.12472    115.12472    115.12472 
  231000    779.66728     -15.1158    2369.9251    8809.2569      1525048   -79.622122    42.289175    -8.014452    115.10508    115.10508    115.10508 
  232000    758.40337   -68.038596    2453.4951      8789.37    1524267.4   -100.77657   -2.7012691   -100.63795    115.08544    115.08544    115.08544 
  233000    811.56192    50.605867     2354.526    8724.9766      1523487    96.254543    33.749939     21.81312     115.0658     115.0658     115.0658 
  234000    799.69091    -27.46277    2325.7057     8788.774    1522706.9   -130.28427    19.898574    27.997387    115.04615    115.04615    115.04615 
  235000    813.35067    18.700631    2305.6338    8765.7796    1521927.1   -15.922489    53.416563    18.607818    115.02651    115.02651    115.02651 
  236000     790.8253    29.158709     2345.824    8793.1216    1521147.6    178.27609   -82.207783   -8.5921799    115.00687    115.00687    115.00687 
  237000    787.90314    5.5726369    2395.9207    8750.7145    1520368.3    51.343737   -73.914148    39.288321    114.98723    114.98723    114.98723 
  238000    802.36059   -112.57272    2315.0475    8786.2187    1519589.3   -35.551998    -9.061122   -293.10505    114.96758    114.96758    114.96758 
  239000    774.77094     55.88244    2368.8232    8815.3935    1518810.6    45.357507     58.64821    63.641601    114.94794    114.94794    114.94794 
  240000     769.9218    21.611127    2451.6514     8746.271    1518032.1    -15.01391   -46.379059    126.22635     114.9283     114.9283     114.9283 
  241000    774.44453    71.259744      2395.69    8787.4358    1517253.9   -8.3906245    126.33772    95.832135    114.90866    114.90866    114.90866 
  242000    795.83496    87.497637    2358.5941    8757.5578    1516475.9    4.1046342    137.53507    120.85321    114.88902    114.88902    114.88902 
  243000    800.67271   -68.418809     2263.478    8836.3919    1515698.2   -109.42053     69.10775   -164.94365    114.86937    114.86937    114.86937 
  244000    805.91761   -13.267019    2248.8363    8834.0216    1514920.8   -202.53339    163.87616    -1.143821    114.84973    114.84973    114.84973 
  245000    831.96109    102.52986    2280.9812    8720.9759    1514143.7    167.92127   -24.846706    164.51501    114.83009    114.83009    114.83009 
  246000    775.99894    128.03765    2350.7371    8821.0728    1513366.8    69.010443    145.18637    169.91614    114.81045    114.81045    114.81045 
  247000     769.2414   -100.01817    2353.8249    8837.3166    1512590.2   -172.30468   -36.934417   -90.815413     114.7908     114.7908     114.7908 
  248000    789.81114    24.792735    2356.3792     8770.554    1511813.8    16.795581    27.007959    30.574666    114.77116    114.77116    114.77116 
  249000    798.40828   -5.3577059    2334.0286    8765.4957    1511037.7    109.99919   -23.517812    -102.5545    114.75152    114.75152    114.75152 
  250000    802.94551   -109.48941    2304.5806     8779.813    1510261.9   -106.79064   -132.13194   -89.545644    114.73188    114.73188    114.73188 
  251000    767.62604  -0.65494833    2368.1622    8822.8221    1509486.4     36.54087    -28.79635   -9.7093656    114.71223    114.71223    114.71223 
  252000    800.18993   -8.5810289    2362.3182    8728.0306    1508711.1   -19.057634    21.321907   -28.007359    114.69259    114.69259    114.69259 
  253000    774.91265   -35.997728    2404.9417    8761.3925    1507936.1   -87.214815   -10.272007    -10.50636    114.67295    114.67295    114.67295 
  254000    784.12529    46.774163    2443.8893    8693.2779    1507161.3    33.382245    146.65262   -39.712374    114.65331    114.65331    114.65331 
  255000    787.00455   -57.551349    2416.0171    8710.9005    1506386.8   -18.316698   -9.9502861   -144.38706    114.63366    114.63366    114.63366 
  256000    775.88457   -36.155607    2359.8253    8799.9462    1505612.6   -44.239871   -24.521877   -39.705073    114.61402    114.61402    114.61402 
  257000    777.07379    -82.84502    2453.1463    8701.6971    1504838.6   -22.374468   -58.779627   -167.38097    114.59438    114.59438    114.59438 
  258000    798.81605   -136.82502    2363.7025    8723.5735    1504064.9   -33.433916   -210.93175   -166.10941    114.57474    114.57474    114.57474 
  259000    772.44443    46.551042    2385.3678    8781.3042    1503291.5   -53.574079    80.688086    112.53912    114.55509    114.55509    114.55509 
  260000    795.99588   -82.887648    2358.3936    8735.1897    1502518.3   -108.55879   -97.652103   -42.452052    114.53545    114.53545    114.53545 
  261000    794.60008    103.58432    2392.6147    8703.7741    1501745.4    162.98693    61.030452    86.735595    114.51581    114.51581    114.51581 
  262000    802.28666    52.755636    2244.0513    8827.5594    1500972.8    9.4604773     71.46169    77.344742    114.49617    114.49617    114.49617 
  263000     825.3324   -97.582492     2224.741    8775.3559    1500200.4   -59.762689   -101.12048   -131.86431    114.47652    114.47652    114.47652 
  264000    796.44505   -59.044038    2257.0283    8829.7337    1499428.3   -132.16537   -45.692947   0.72619852    114.45688    114.45688    114.45688 
  265000    814.51696    135.11845    2221.9426    8808.2565    1498656.5    204.54391    152.46454    48.346884    114.43724    114.43724    114.43724 
  266000    808.15241    -14.05567    2312.6025    8735.8369    1497884.9   -73.239792   -60.959753    92.032537     114.4176     114.4176     114.4176 
  267000    825.67293   -20.259461    2154.3255     8839.591    1497113.6   -45.457455     63.19681    -78.51774    114.39795    114.39795    114.39795 
  268000    804.80665    36.371141    2213.5821    8842.6119    1496342.6    141.77279   -41.218801    8.5594329    114.37831    114.37831    114.37831 
  269000    791.46883   -41.484111    2348.1896      8747.37    1495571.8   -126.18522    12.893089   -11.160206    114.35867    114.35867    114.35867 
  270000    770.68733    -15.96082    2410.3721     8747.264    1494801.3   -70.849077    73.695863   -50.729245    114.33902    114.33902    114.33902 
  271000     816.2758   -36.227578    2258.3022    8759.0903      1494031    59.058285   -71.234015   -96.507004    114.31938    114.31938    114.31938 
  272000    770.30023   -40.530228    2267.6802    8888.6216      1493261   -11.435796    -21.35601   -88.798879    114.29974    114.29974    114.29974 
  273000    750.79956    146.42393     2389.035    8825.9631    1492491.3    51.841536    160.31648    227.11378     114.2801     114.2801     114.2801 
  274000    805.29992    8.4399236    2262.9423    8784.1675    1491721.8    174.83111   -90.863925   -58.647415    114.26045    114.26045    114.26045 
  275000    826.13537    41.297925    2262.7291    8719.8688    1490952.6   -19.906412     19.48941    124.31078    114.24081    114.24081    114.24081 
  276000    809.41417    98.744299    2301.6016    8730.8127    1490183.7   -9.7360165    147.20405    158.76486    114.22117    114.22117    114.22117 
  277000    798.37773    1.6416537    2320.8366    8743.7564    1489415.1    -97.60063    63.441715    39.083876    114.20153    114.20153    114.20153 
  278000    785.14586      24.2629    2306.1022    8797.7318    1488646.7     64.51761   -70.668983    78.940071    114.18188    114.18188    114.18188 
  279000     797.7394    31.688286    2272.6291    8791.6399    1487878.5    38.160234    20.001018    36.903604    114.16224    114.16224    114.16224 
  280000    828.25641   -38.726683    2209.5797    8760.5022    1487110.6    39.540245   -27.752828   -127.96747     114.1426     114.1426     114.1426 
  281000    826.28029    -35.06937    2162.0124    8812.7765      1486343   -21.446257   -37.476057   -46.285796    114.12296    114.12296    114.12296 
  282000    799.62485   -13.830285    2256.2223    8798.7397    1485575.7    8.3720125    100.43988   -150.30274    114.10331    114.10331    114.10331 
  283000    811.59871    90.046458    2246.6293    8770.3666    1484808.6    245.80611   -7.3290065     31.66227    114.08367    114.08367    114.08367 
  284000    780.47957     17.61466    2381.6697    8728.9607    1484041.8    72.118305    16.244418   -35.518743    114.06403    114.06403    114.06403 
  285000    796.56617   -155.42329    2235.5747    8824.7877    1483275.3   -261.63124   -83.499509   -121.13913    114.04439    114.04439    114.04439 
  286000    821.98618   -20.231665    2179.5771    8801.9572      1482509   -3.5816076   -13.879448    -43.23394    114.02474    114.02474    114.02474 
  287000    799.21925    46.805792    2283.4776      8766.19    1481742.9   -34.356425     39.73837    135.03543     114.0051     114.0051     114.0051 
  288000     795.7927     2.794882    2262.3289    8796.5905    1480977.2   -96.751517   -47.079285    152.21545    113.98546    113.98546    113.98546 
  289000    789.23922   -19.173029    2300.9334    8776.7353    1480211.7    42.847348   -72.335544   -28.030892    113.96582    113.96582    113.96582 
  290000    822.84362    6.9949001    2188.3197    8785.4382    1479446.5    46.458175   -54.568218    29.094743    113.94617    113.94617    113.94617 
  291000    785.72304    22.156343    2316.5553    8769.5445    1478681.5     2.590085   -24.498315    88.377259    113.92653    113.92653    113.92653 
  292000    797.60565   -70.611175    2279.9861    8768.6484    1477916.8   -29.455914    24.005992    -206.3836    113.90689    113.90689    113.90689 
  293000    789.14162    21.320092    2281.0071    8792.2435    1477152.4    45.355864    59.204758   -40.600346    113.88725    113.88725    113.88725 
  294000    787.89614   0.44281337    2236.4882    8839.2539    1476388.2   -40.147298    3.6469662    37.828772     113.8676     113.8676     113.8676 
  295000    808.28101    11.965831    2233.6951    8778.7023    1475624.3    -56.69062    67.146369    25.441745    113.84796    113.84796    113.84796 
  296000    790.36382    79.280741     2278.782    8787.1303    1474860.6    75.194534    154.79481    7.8528817    113.82832    113.82832    113.82832 
  297000    797.14782   -34.137803    2255.8495    8788.1503    1474097.2    15.141203   -38.260565   -79.294046    113.80868    113.80868    113.80868 
  298000    810.63824    18.648353    2276.1143    8725.3607    1473334.1    91.853071    19.636604   -55.544615    113.78903    113.78903    113.78903 
  299000    764.37963    89.292805    2347.7331    8794.0177    1472571.3    154.82468    4.4366257    108.61711    113.76939    113.76939    113.76939 
  300000    771.06892    3.9879189     2377.501    8742.3461    1471808.7   -13.426132    89.283516   -63.893627    113.74975    113.74975    113.74975 
  301000    782.75974    46.954042    2296.5753    8786.5569    1471046.3    66.990618    127.11166   -53.240157    113.73011    113.73011    113.73011 
  302000    785.07273   -47.417147    2254.9664    8819.8161    1470284.3   -70.533847 -0.014317134   -71.703278    113.71046    113.71046    113.71046 
  303000    767.53152    185.44844     2355.106     8771.971    1469522.5    176.46754    68.812514    311.06525    113.69082    113.69082    113.69082 
  304000    814.68688   -23.359755    2251.1649    8731.1582    1468760.9   -3.0646965   -88.699895    21.685327    113.67118    113.67118    113.67118 
  305000    785.28721   -11.610865    2285.6741    8785.3331    1467999.6   -58.131074   -6.4654905     29.76397    113.65154    113.65154    113.65154 
  306000    793.78388    28.655393    2248.6675    8794.9856    1467238.6    2.0503185     93.67354   -9.7576814     113.6319     113.6319     113.6319 
  307000    812.57245    79.500616     2220.239    8765.0457    1466477.9    71.066135     155.2792    12.156509    113.61225    113.61225    113.61225 
  308000     778.8249    56.319436    2327.3705      8759.67    1465717.4   -12.430825    153.41011    27.979028    113.59261    113.59261    113.59261 
  309000    794.22052    54.382217    2264.0995    8774.5412    1464957.1    41.873129    40.029122    81.244399    113.57297    113.57297    113.57297 
  310000    777.84395   -3.4390783    2275.7503    8811.7746    1464197.2    3.0061627   -83.113172    69.789774    113.55333    113.55333    113.55333 
  311000     779.2976    97.149912    2371.8272     8709.904    1463437.5    16.979055    245.39767    29.073013    113.53368    113.53368    113.53368 
  312000    764.26509   -10.805929    2334.3637    8792.2927      1462678  -0.18391838     25.47096   -57.704829    113.51404    113.51404    113.51404 
  313000    800.92564    2.2966926    2224.1605    8789.3978    1461918.9    61.784296   -44.128682   -10.765536     113.4944     113.4944     113.4944 
  314000    776.75867    56.411862    2262.4184    8823.7283      1461160   -83.899405    85.067025    168.06797    113.47476    113.47476    113.47476 
  315000    805.08572    71.601988    2235.4195    8762.8607    1460401.3   -23.493863    25.331404    212.96842    113.45511    113.45511    113.45511 
  316000     779.2306   -62.857471    2299.1274    8777.1624    1459642.9    122.91997   -123.71787   -187.77452    113.43547    113.43547    113.43547 
  317000    797.37798    107.44309    2200.1407    8819.6369    1458884.8    137.01805    130.01833     55.29288    113.41583    113.41583    113.41583 
  318000    800.36186    -50.49386     2221.585    8787.5894    1458126.9   -11.898964   -52.790784   -86.791832    113.39619    113.39619    113.39619 
  319000    783.17989   -97.774152    2265.0793    8795.5608    1457369.3   -105.96252   -94.776054   -92.583878    113.37654    113.37654    113.37654 
  320000    768.05619    114.95568    2303.6423     8801.936      1456612    15.708568    101.52543    227.63305     113.3569     113.3569     113.3569 
  321000    775.36261   -2.3848239    2294.2112    8787.6375    1455854.9    37.984337    13.586024   -58.724833    113.33726    113.33726    113.33726 
  322000    792.09799    80.034241    2245.6823    8783.9532    1455098.1    21.724096    133.25774    85.120891    113.31762    113.31762    113.31762 
  323000    792.44949   -63.499778    2249.3878    8777.8944    1454341.6   -84.099877   -101.39834    -5.001117    113.29797    113.29797    113.29797 
  324000    778.50163   -34.696604    2374.0676    8694.4828    1453585.3   -89.229555   -44.248078     29.38782    113.27833    113.27833    113.27833 
  325000    767.81205   -77.698401    2322.4201    8777.5297    1452829.2   -69.062489   -96.559914   -67.472801    113.25869    113.25869    113.25869 
  326000    777.50697     62.97949    2301.2623    8768.2889    1452073.5   -55.638117      107.328    137.24859    113.23905    113.23905    113.23905 
  327000    801.89851    47.113995    2249.5896    8744.0302      1451318    19.285307    57.781234    64.275445     113.2194     113.2194     113.2194 
  328000    777.32727    25.230183    2249.1357    8818.1132    1450562.7    17.435046    19.886892    38.368609    113.19976    113.19976    113.19976 
  329000    795.98396    9.7733918    2311.8126     8697.804    1449807.8    37.520478    10.979672   -19.179975    113.18012    113.18012    113.18012 
  330000    812.47108    -115.5729    2194.6091      8763.52      1449053   -184.05092   -109.29282   -53.374974    113.16047    113.16047    113.16047 
  331000    777.01995   -123.83248    2252.4841    8812.3412    1448298.6   -98.297123   -70.979643   -202.22069    113.14083    113.14083    113.14083 
  332000    787.01628   -15.267284    2304.8769    8728.1449    1447544.4    108.51508   -58.102796   -96.214138    113.12119    113.12119    113.12119 
  333000    779.83276     101.0642    2256.0885    8797.7934    1446790.5    95.332132    76.878818    130.98165    113.10155    113.10155    113.10155 
  334000    779.72034    58.256941    2282.1082    8770.8785    1446036.8   -13.098266    132.29289    55.576201     113.0819     113.0819     113.0819 
  335000    770.65983   -155.49373    2299.1209    8780.2213    1445283.4   -134.29901   -238.06574   -94.116439    113.06226    113.06226    113.06226 
  336000    761.76782   -146.56282     2341.824    8763.2455    1444530.3   -156.39222    -143.7251   -139.57115    113.04262    113.04262    113.04262 
  337000    789.27124     3.428465    2262.7075    8757.2447    1443777.4    41.532314   -7.1043848   -24.142534    113.02298    113.02298    113.02298 
  338000    780.56936    31.300692    2244.6425    8800.7507    1443024.8    22.380331    68.988738    2.5330079    113.00333    113.00333    113.00333 
  339000     781.3074   -48.944579    2295.5811    8746.2916    1442272.4   -4.5329778   -92.569796   -49.730963    112.98369    112.98369    112.98369 
  340000    801.92696   -8.8454921    2218.2954    8759.4886    1441520.3   -80.758442   -19.602677    73.824643    112.96405    112.96405    112.96405 
  341000    792.11287    37.525522    2276.9351    8729.6587    1440768.5   -44.822099    82.490124    74.908541    112.94441    112.94441    112.94441 
  342000    799.79945   -3.4414445    2294.7434    8687.0317    1440016.9   0.99917786    30.696494   -42.020006    112.92476    112.92476    112.92476 
  343000    779.68411   -21.163004    2228.9723    8813.0207    1439265.6   -179.14602    3.7724803    111.88453    112.90512    112.90512    112.90512 
  344000    792.98449   -38.233618    2232.1777    8767.8609    1438514.5   -8.4315062   -56.186052   -50.083294    112.88548    112.88548    112.88548 
  345000    786.51709    55.365871    2292.5262    8726.1378    1437763.7    98.075449   0.69422933    67.327936    112.86584    112.86584    112.86584 
  346000    788.06071   -54.296669    2169.5784     8843.066    1437013.2   -136.06728     -61.8494    35.026673    112.84619    112.84619    112.84619 
  347000    779.93224    -30.96329    2221.9586    8814.1086    1436262.9    18.736157   -60.120438    -51.50559    112.82655    112.82655    112.82655 
  348000    801.68738    1.0362552    2228.8932       8739.6    1435512.9     117.9075   -130.61989    15.821158    112.80691    112.80691    112.80691 
  349000     800.1989   -65.337459    2194.1236    8777.5502    1434763.2   -116.42141   -8.7462952   -70.844667    112.78727    112.78727    112.78727 
  350000    799.26803    46.661397    2194.2325    8779.2029    1434013.7   -15.595632    22.462247    133.11758    112.76762    112.76762    112.76762 
  351000    807.47514   -4.3243521    2177.1791    8769.6396    1433264.5    122.38401    14.350775   -149.70784    112.74798    112.74798    112.74798 
  352000    804.21215   -68.818604    2139.7675    8816.0167    1432515.5   -35.802093   -95.553731   -75.099989    112.72834    112.72834    112.72834 
  353000    786.86083     72.47361    2258.7758    8748.3992    1431766.8    156.84281   -6.0451286    66.623146     112.7087     112.7087     112.7087 
  354000    795.60247   -9.5114547    2146.8547    8832.6526    1431018.4   -8.9391256    6.4105643   -26.005803    112.68905    112.68905    112.68905 
  355000     779.4298    197.80712    2266.8904    8760.5758    1430270.2     168.9076    112.06566    312.44809    112.66941    112.66941    112.66941 
  356000    798.64123   -57.142338    2193.4665    8773.8936    1429522.3   -17.538499   -54.358264   -99.530251    112.64977    112.64977    112.64977 
  357000    785.80592   -1.3582524    2230.5116    8774.7398    1428774.6    95.168987   -71.839439   -27.404305    112.63013    112.63013    112.63013 
  358000    775.13628    60.259789    2231.0206    8805.7041    1428027.2    74.683842    81.669764    24.425762    112.61048    112.61048    112.61048 
  359000    785.52017    95.554029    2292.7847    8710.7617    1427280.1    117.75419    137.96779    30.940112    112.59084    112.59084    112.59084 
  360000    772.54047    29.354668    2260.0415    8781.8241    1426533.2    52.009402    68.093329   -32.038726     112.5712     112.5712     112.5712 
  361000    766.44552    122.34787    2323.7702    8735.7288    1425786.6    116.06776    66.010455    184.96539    112.55156    112.55156    112.55156 
  362000    775.97481   -99.429834    2250.5323    8778.4279    1425040.2   -206.26804    22.776889   -114.79835    112.53191    112.53191    112.53191 
  363000    778.81622    45.074891    2218.5417    8800.6678    1424294.1    124.87522   -2.5237114    12.873164    112.51227    112.51227    112.51227 
  364000    763.49971   -11.265109    2295.1153    8769.3364    1423548.3   -63.950855    52.670862   -22.515333    112.49263    112.49263    112.49263 
  365000    789.73519     89.06699    2244.7373    8738.6201    1422802.7     99.62533    132.37221    35.203427    112.47299    112.47299    112.47299 
  366000    785.24546   -7.9408363    2235.9251    8759.9133    1422057.4    80.077194   -58.052896   -45.846807    112.45334    112.45334    112.45334 
  367000    766.45393    10.520095    2296.4928    8755.4056    1421312.4    151.83811   -127.80103    7.5232079     112.4337     112.4337     112.4337 
  368000    795.23754    100.01335    2248.9375    8713.9427    1420567.6    73.947412    45.803314    180.28931    112.41406    112.41406    112.41406 
  369000    771.50963   -38.091353    2221.2794    8812.7105    1419823.1    36.280196   -42.312004   -108.24225    112.39442    112.39442    112.39442 
  370000    775.06431   -13.783983    2167.6045    8854.5988    1419078.8    51.235344   -20.850168   -71.737125    112.37477    112.37477    112.37477 
  371000    770.80161    128.73163    2245.0564    8788.9745    1418334.8     95.58023    60.676056    229.93859    112.35513    112.35513    112.35513 
  372000    775.88346   -14.129013    2285.6816    8731.5125      1417591   -56.609389    125.35411   -111.13176    112.33549    112.33549    112.33549 
  373000    790.59144     14.78238    2225.6517    8745.3243    1416847.5    150.54821   -81.785015   -24.416056    112.31585    112.31585    112.31585 
  374000    778.70394   -10.713292     2227.313    8778.7529    1416104.3   -95.992684    59.893806    3.9590032    112.29621    112.29621    112.29621 
  375000    786.91632    70.337022    2215.8276    8764.0407    1415361.3   -24.516957    112.29236    123.23567    112.27656    112.27656    112.27656 
  376000    778.70999    5.5243801    2255.3596    8748.1853    1414618.6    31.107504    -73.18598    58.651617    112.25692    112.25692    112.25692 
  377000     754.0038    126.78416    2291.5264    8786.5188    1413876.2     158.5591    131.35775    90.435627    112.23728    112.23728    112.23728 
  378000    765.40268    57.210764    2239.5103    8802.3512      1413134   -16.758516    150.19548    38.195332    112.21764    112.21764    112.21764 
  379000    771.17905    82.955232    2284.2395    8738.8016      1412392    66.769001     78.48922    103.60747    112.19799    112.19799    112.19799 
  380000    750.33609   -126.83265    2365.2152    8720.2403    1411650.4   -195.63392   -156.70451   -28.159512    112.17835    112.17835    112.17835 
  381000    781.87106    50.770201    2270.2993    8717.8502    1410908.9    133.41069    51.826653    -32.92674    112.15871    112.15871    112.15871 
  382000    781.14437    72.634779    2230.3359    8758.9471    1410167.8    3.7633928     25.57984     188.5611    112.13907    112.13907    112.13907 
  383000    788.82672    65.236378    2188.5765    8775.9868    1409426.9    199.73493   -52.396943    48.371152    112.11942    112.11942    112.11942 
  384000     769.4647    23.414609    2235.8922    8786.6801    1408686.3   -17.470718    33.212015    54.502529    112.09978    112.09978    112.09978 
  385000    758.54432   -136.38018    2294.1236      8760.52    1407945.9   -197.81965   -13.472529   -197.84836    112.08014    112.08014    112.08014 
  386000    767.39676   -33.897483    2222.8271    8803.6887    1407205.8    83.077489   -133.22365   -51.546291     112.0605     112.0605     112.0605 
  387000    772.82739   -82.269654    2232.0967    8776.4718    1406465.9   -61.595258   -103.63862   -81.575089    112.04085    112.04085    112.04085 
  388000    803.74386    -29.23962    2184.5763    8728.4387    1405726.3   -107.75772    39.079814   -19.040951    112.02121    112.02121    112.02121 
  389000    772.94575    150.37663    2279.2399    8726.1377      1404987    259.34282    148.53047    43.256585    112.00157    112.00157    112.00157 
  390000    776.57391   -80.008875    2217.2771    8775.9213    1404247.9   -106.39139   -159.57937    25.944139    111.98193    111.98193    111.98193 
  391000    773.58683    150.86505    2263.1107    8738.0288    1403509.1    186.86436    107.82548    157.90531    111.96228    111.96228    111.96228 
  392000    759.10117    7.5473258    2232.4947     8811.721    1402770.5   -1.6716586   -99.577478    123.89111    111.94264    111.94264    111.94264 
  393000    791.79965   -100.64887    2160.9606    8782.1035    1402032.2   -96.718708   -48.160766   -157.06715      111.923      111.923      111.923 
  394000    763.90974    38.469255    2281.1476    8745.8629    1401294.2    137.72708   -20.440008   -1.8793048    111.90336    111.90336    111.90336 
  395000    801.39144     59.71351    2159.1012    8751.8054    1400556.4   -62.763432    96.152437    145.75152    111.88371    111.88371    111.88371 
  396000    796.28017   -22.934147    2194.8371    8730.3314    1399818.9     -100.376     17.76004    13.813523    111.86407    111.86407    111.86407 
  397000    769.24782   -55.602931    2243.8084    8762.5589    1399081.6   -39.402186   -34.221858    -93.18475    111.84443    111.84443    111.84443 
  398000    787.57793   -32.022661    2183.1499    8765.9361    1398344.6    78.544829   -61.781563   -112.83125    111.82478    111.82478    111.82478 
  399000    791.30278   -44.789655    2124.9629    8811.7594    1397607.9   -61.548259   -28.598699   -44.222006    111.80514    111.80514    111.80514 
  400000    801.77076    65.283879    2099.5538    8803.8557    1396871.4    123.00811   -31.453612    104.29714     111.7855     111.7855     111.7855 
  401000    790.58411    79.152685    2201.5564    8734.7805    1396135.2    97.548102    29.484311    110.42564    111.76586    111.76586    111.76586 
  402000    778.92972   -6.2135824    2146.5371    8824.2003    1395399.2   -58.778421    65.444061   -25.306387    111.74621    111.74621    111.74621 
  403000    783.51395    25.009321    2149.9471    8805.4482    1394663.5   -83.550431    118.41634    40.162057    111.72657    111.72657    111.72657 
  404000     791.5585     41.90439    2172.3411    8757.1336      1393928    139.72714     8.935297   -22.949262    111.70693    111.70693    111.70693 
  405000    772.84391   -112.38265    2187.5949    8797.9959    1393192.8   -150.59553   -70.034759   -116.51765    111.68729    111.68729    111.68729 
  406000    794.27891    3.0393753    2143.7458    8775.1002    1392457.9   -4.9338043    15.525706    -1.473776    111.66764    111.66764    111.66764 
  407000    807.93518    30.122539    2208.7889    8667.1169    1391723.2     45.34531   -25.987231    71.009539      111.648      111.648      111.648 
  408000    796.09707    85.155413    2111.0343    8799.6892    1390988.8   -1.7455078    108.14915    149.06259    111.62836    111.62836    111.62836 
  409000     797.5005    3.5516797    2134.4187    8770.8373    1390254.6   -64.247342    90.583146   -15.680765    111.60872    111.60872    111.60872 
  410000    796.58183    76.475495    2116.1828    8790.5619    1389520.7     49.74159    99.501366    80.183528    111.58907    111.58907    111.58907 
  411000    795.51979   0.39025016    2125.0176    8783.8136    1388787.1   -17.443138   -26.908754    45.522642    111.56943    111.56943    111.56943 
  412000    787.16138   -16.233415    2198.7393    8734.1648    1388053.7    39.242061    37.983507   -125.92581    111.54979    111.54979    111.54979 
  413000     789.6493    3.7426176    2168.6667    8755.6698    1387320.6    33.062874     11.24592   -33.080941    111.53015    111.53015    111.53015 
  414000    766.71951    150.21902    2208.2704    8784.6669    1386587.7    52.698616    177.99265     219.9658     111.5105     111.5105     111.5105 
  415000    752.63711    84.814063    2256.4248    8777.9206    1385855.1    33.783414    135.04263    85.616141    111.49086    111.49086    111.49086 
  416000    751.60229   -22.693563    2272.0993    8764.5985    1385122.8    45.898109   -81.964727   -32.014071    111.47122    111.47122    111.47122 
  417000    769.65724    -3.354251    2205.7008    8774.3061    1384390.7   -89.483894    72.920961    6.5001798    111.45158    111.45158    111.45158 
  418000     778.4276   -7.1994333     2201.462    8750.6165    1383658.8   -98.721972    148.88971   -71.766042    111.43193    111.43193    111.43193 
  419000    749.13697     38.25573    2249.6669    8790.6276    1382927.2    130.49519   -11.872923   -3.8550716    111.41229    111.41229    111.41229 
  420000    760.10959   0.39534006    2311.6421    8694.0797    1382195.9    121.62905   -36.653211    -83.78982    111.39265    111.39265    111.39265 
  421000    769.32435   -9.3884797    2188.8931    8787.4154    1381464.9   -34.617951   -61.835879    68.288391    111.37301    111.37301    111.37301 
  422000     760.9235   -7.7869827    2200.4539    8800.4482    1380734.1    21.345427    3.9348496   -48.641225    111.35336    111.35336    111.35336 
  423000     775.1937    73.095714    2217.1301    8739.0313    1380003.5    78.203073    88.466107    52.617962    111.33372    111.33372    111.33372 
  424000     785.0039   -80.932127    2165.8816    8758.9144    1379273.2   -101.71165    -52.10358   -88.981148    111.31408    111.31408    111.31408 
  425000     762.0259   -21.014654    2187.9789    8805.7896    1378543.2    69.990276   -83.488143   -49.546093    111.29444    111.29444    111.29444 
  426000    795.49247    114.52395    2136.8817    8753.4357    1377813.4     172.1759    146.51142    24.884543    111.27479    111.27479    111.27479 
  427000    786.53661   -39.097253    2161.8076    8754.7389    1377083.9   -120.74961   -22.200448    25.658297    111.25515    111.25515    111.25515 
  428000    773.94897   -36.522523    2250.4884    8702.8733    1376354.6   -138.94356   -88.152714    117.52871    111.23551    111.23551    111.23551 
  429000    778.35696   -68.497512    2241.3018    8697.3471    1375625.6    62.661969   -127.16601    -140.9885    111.21587    111.21587    111.21587 
  430000    768.13093    139.75485    2198.7925    8769.9834    1374896.9    228.70182    81.672843    108.88987    111.19622    111.19622    111.19622 
  431000    775.09214    6.3383613    2209.1676    8737.1028    1374168.4   -62.458028     100.3533   -18.880185    111.17658    111.17658    111.17658 
  432000    755.22264    -60.01584    2144.7188    8861.0247    1373440.2    -57.91429   -72.718315   -49.414916    111.15694    111.15694    111.15694 
  433000    792.89094    162.57559    2152.3582    8737.2046    1372712.2    18.959398    325.90718    142.86018     111.1373     111.1373     111.1373 
  434000    772.58117    5.2503619    2214.2233    8736.1325    1371984.5   -84.401742   -26.261592    126.41442    111.11765    111.11765    111.11765 
  435000    768.46339   -20.003359    2179.6245    8782.2872      1371257   -30.523055    22.590782   -52.077804    111.09801    111.09801    111.09801 
  436000    785.84076     195.0488    2129.2813    8778.4884    1370529.8    192.85811    209.62614    182.66215    111.07837    111.07837    111.07837 
  437000    755.53082   -58.032473    2180.9244    8818.2272    1369802.9    -65.15629   -131.15464    22.213508    111.05873    111.05873    111.05873 
  438000    795.80163    27.079824    2141.3211    8733.5286    1369076.2     42.97713    83.814252   -45.551909    111.03909    111.03909    111.03909 
  439000    763.48392    8.4200841    2232.2075    8740.2136    1368349.8   -37.580077    7.7083089    55.132021    111.01944    111.01944    111.01944 
  440000    792.84267    53.815731    2167.4708    8714.1689    1367623.6    110.99563   -28.605471     79.05703     110.9998     110.9998     110.9998 
  441000    776.87205    102.16338    2224.4632    8704.7915    1366897.7    57.952103    197.22123    51.316824    110.98016    110.98016    110.98016 
  442000      760.958   -72.546583    2171.5132    8805.0971      1366172   -106.39075   -113.12482     1.875815    110.96052    110.96052    110.96052 
  443000    764.54149    81.584808    2211.2051    8753.3213    1365446.6    86.380111    65.960235    92.414078    110.94087    110.94087    110.94087 
  444000    764.76954   -45.398494    2187.5167    8775.0789    1364721.5    22.811792   -6.1353826   -152.87189    110.92123    110.92123    110.92123 
  445000    746.43917   -61.719002    2274.3943    8742.8994    1363996.6   -169.33663    53.397785   -69.218157    110.90159    110.90159    110.90159 
  446000    786.68522   -91.266729    2157.0801    8736.1279      1363272   -165.12546   -28.569293   -80.105433    110.88195    110.88195    110.88195 
  447000    778.12476    55.094647     2155.938    8762.1706    1362547.6    76.283137    15.927052    73.073752     110.8623     110.8623     110.8623 
  448000    772.35386    208.15621    2161.5277    8772.9459    1361823.5    241.74394    230.53795    152.18673    110.84266    110.84266    110.84266 
  449000    806.70006   -106.00785    2124.4491    8703.7804    1361099.6   -141.63394   -62.381441   -114.00817    110.82302    110.82302    110.82302 
  450000    786.40503  -0.52127654    2157.4367    8731.6774      1360376   -36.387985    36.226748   -1.4025924    110.80338    110.80338    110.80338 
  451000    740.47411   -75.273403    2215.9699    8812.1319    1359652.7    -107.1611    -30.82148   -87.837634    110.78373    110.78373    110.78373 
  452000    779.23672    37.320716    2174.5948    8733.7839    1358929.6    52.760636     41.73474     17.46677    110.76409    110.76409    110.76409 
  453000    764.69002    16.183573    2170.6294    8780.9361    1358206.7   -34.535789   -77.232834    160.31934    110.74445    110.74445    110.74445 
  454000    783.83407    200.77606    2152.1028    8739.8868    1357484.2    254.95153    177.60031    169.77633    110.72481    110.72481    110.72481 
  455000    763.39911    -30.30796    2173.7975    8779.5601    1356761.8   -34.621555   -79.657292    23.354968    110.70516    110.70516    110.70516 
  456000    752.75435   -173.26339    2191.7028    8792.7649    1356039.8   -192.57832   -268.45113   -58.760707    110.68552    110.68552    110.68552 
  457000    778.31274   -67.567724    2164.5215    8740.9415      1355318   -29.701992   -47.768699   -125.23248    110.66588    110.66588    110.66588 
  458000     768.2049   -83.905983    2142.6396    8792.5009    1354596.4   -58.672076   -139.82837     -53.2175    110.64624    110.64624    110.64624 
  459000    745.29491    32.378007     2293.337    8710.5699    1353875.1    62.235809    135.51845   -100.62024    110.62659    110.62659    110.62659 
  460000    761.90416   -47.613059    2197.9169    8754.2348    1353154.1    10.837314   -83.079498   -70.596991    110.60695    110.60695    110.60695 
  461000    776.85357   -21.836141    2162.4951    8742.6755    1352433.3   -98.088298   -29.724581    62.304456    110.58731    110.58731    110.58731 
  462000    769.00415    -56.11182    2236.3485    8691.6938    1351712.8   -34.504641   -105.64904   -28.181774    110.56767    110.56767    110.56767 
  463000    801.52402   -91.227478    2040.8116    8786.8404    1350992.5   -122.75818    13.923826   -164.84808    110.54802    110.54802    110.54802 
  464000    783.08158   -79.930278    2160.7477    8721.8832    1350272.5   -163.22052    2.9621172   -79.532433    110.52838    110.52838    110.52838 
  465000    786.99285   -59.606276    2112.3391    8757.0309    1349552.7    17.523781   -52.758362   -143.58425    110.50874    110.50874    110.50874 
  466000    772.88381   -170.39658     2190.419    8721.0684    1348833.2   -205.29113    -108.6926     -197.206    110.48909    110.48909    110.48909 
  467000    757.94329   -84.790627    2181.3507    8774.4947      1348114   -152.97682   -101.73632   0.34125973    110.46945    110.46945    110.46945 
  468000    785.24825   -52.476339    2120.8013    8750.5834      1347395   -91.085577   -90.864296    24.520856    110.44981    110.44981    110.44981 
  469000    784.29582   -35.188357    2134.3314    8738.3069    1346676.2    20.828089   -98.576012   -27.817147    110.43017    110.43017    110.43017 
  470000    769.38525    9.5903083    2091.5561    8825.3291    1345957.7   -28.451278     14.97347    42.248733    110.41053    110.41053    110.41053 
  471000    771.74921   -34.997352    2145.7736    8762.7359    1345239.5   -46.774481   -17.335957   -40.881619    110.39088    110.39088    110.39088 
  472000    778.23925    140.49172    2138.0518     8749.594    1344521.5    176.92043    114.27734    130.27739    110.37124    110.37124    110.37124 
  473000    749.11718    18.709307    2153.7565    8821.5891    1343803.8    94.190346   -94.289315     56.22689     110.3516     110.3516     110.3516 
  474000    766.98015   -50.930826    2151.6486    8768.0703    1343086.4   -22.000915   -28.502648   -102.28891    110.33195    110.33195    110.33195 
  475000    775.88267    82.369146    2131.9056    8759.2398    1342369.2    106.99283    15.858642    124.25597    110.31231    110.31231    110.31231 
  476000    788.75326   -15.599839    2046.5444    8804.1156    1341652.2   -158.04347    157.69591   -46.451962    110.29267    110.29267    110.29267 
  477000    789.82055   -74.792129    2132.1204    8714.2969    1340935.5   -74.975672   -123.91366    -25.48706    110.27303    110.27303    110.27303 
  478000    781.19783   -157.35985    2114.1253    8757.1349    1340219.1   -175.72735   -70.104748   -226.24746    110.25338    110.25338    110.25338 
  479000    776.50329    52.117881    2093.1333    8791.4335    1339502.9    266.26902   -37.242773   -72.672608    110.23374    110.23374    110.23374 
  480000    780.90858   -19.803696    2118.2699    8751.5705      1338787    72.608367    19.394002   -151.41346     110.2141     110.2141     110.2141 
  481000    770.71276   -80.959578    2140.5267    8759.0651    1338071.3   -43.572656   -156.58363   -42.722444    110.19446    110.19446    110.19446 
  482000    749.28511   -162.65587    2204.5303    8759.4436    1337355.9   -190.08257   -127.24235    -170.6427    110.17481    110.17481    110.17481 
  483000    774.79971   -15.291976    2164.3689    8720.5484    1336640.7    -160.6647    125.06256   -10.273782    110.15517    110.15517    110.15517 
  484000    750.18396    26.046637     2175.679    8783.2234    1335925.8    86.141613   -194.84644    186.84474    110.13553    110.13553    110.13553 
  485000    783.16926    25.349548    2148.7723    8708.1429    1335211.1    52.710292    41.013436   -17.675085    110.11589    110.11589    110.11589 
  486000    748.29477   -14.975789    2221.6278    8740.7583    1334496.8     115.0442    19.785981   -179.75755    110.09624    110.09624    110.09624 
  487000    751.13059    -83.51548    2200.1788    8752.2825    1333782.6   -105.60155   -36.487863   -108.45703     110.0766     110.0766     110.0766 
  488000    766.06503    55.591127    2081.2645    8824.1686    1333068.7   -53.967496    48.948869    171.79201    110.05696    110.05696    110.05696 
  489000    761.42885   -153.04675    2166.4489    8752.1622    1332355.1   -148.65274   -151.85013    -158.6374    110.03732    110.03732    110.03732 
  490000    772.34881   -70.657112    2144.9625    8738.7588    1331641.7   -113.53836    38.747141   -137.18012    110.01767    110.01767    110.01767 
  491000    770.96375     149.5711    2162.8966    8723.8219    1330928.6    200.64312    191.96492    56.105268    109.99803    109.99803    109.99803 
  492000    740.18425   -33.470802    2219.8321    8759.8038    1330215.7   -81.191784   -29.900125    10.679505    109.97839    109.97839    109.97839 
  493000    793.09099   -62.972083     2076.719    8740.2013    1329503.1    6.1794905   -103.58761   -91.508127    109.95875    109.95875    109.95875 
  494000    773.06112   -53.028041     2129.972    8746.6878    1328790.7    55.841822   -86.721317   -128.20463     109.9391     109.9391     109.9391 
  495000    769.16841    30.032529     2162.928       8724.7    1328078.6   -68.038595    15.485137    142.65104    109.91946    109.91946    109.91946 
  496000    774.45744    48.746562    2116.6596    8753.4289    1327366.8    42.581197    94.413285    9.2452045    109.89982    109.89982    109.89982 
  497000    765.95344   -31.792749    2130.4755    8764.2466    1326655.2   -4.9943739    75.488238   -165.87211    109.88018    109.88018    109.88018 
  498000    766.35298    126.29508    2159.3075    8733.1673    1325943.8    329.38996    13.807876    35.687399    109.86053    109.86053    109.86053 
  499000    776.77707   -107.46407     2116.941    8742.6907    1325232.7   -148.69358   -111.40455   -62.294087    109.84089    109.84089    109.84089 
  500000    762.28309   -29.071065    2146.0944    8756.5852    1324521.9    -16.13319   -36.355128   -34.724877    109.82125    109.82125    109.82125 
  501000    770.54163    -30.13891    2086.7788    8789.4036    1323811.3   -6.0749374   -145.93632    61.594524    109.80161    109.80161    109.80161 
  502000    763.38765    63.557722    2115.9682    8781.1648      1323101   0.33239313     92.61938    97.721392    109.78196    109.78196    109.78196 
  503000    755.12137   -26.966936    2185.7258    8735.1975    1322390.9    70.586037   -72.368007   -79.118839    109.76232    109.76232    109.76232 
  504000    754.64206   -97.341464     2213.541     8707.764    1321681.1   -66.793239   -148.06352   -77.167634    109.74268    109.74268    109.74268 
  505000    764.04688   -43.322608    2160.8749    8730.4331    1320971.6   -46.129716   -111.75431    27.916201    109.72304    109.72304    109.72304 
  506000    762.22722    40.657232    2168.5276    8727.1196    1320262.2   -46.748171    166.58032    2.1395485     109.7034     109.7034     109.7034 
  507000    755.38922    37.558513    2189.7474    8725.7513    1319553.2    156.32533   -22.625717   -21.024076    109.68375    109.68375    109.68375 
  508000    779.40407    84.498957     2141.522    8699.4846    1318844.4    46.832633    144.73634    61.927892    109.66411    109.66411    109.66411 
  509000     774.1733    1.7809327    2172.5186    8683.3479    1318135.8    10.011008    31.708625   -36.376836    109.64447    109.64447    109.64447 
  510000    761.46304   -73.943281     2093.692    8799.8917    1317427.5   -189.14465   -76.634199    43.949008    109.62483    109.62483    109.62483 
  511000    742.47765    4.4256925    2169.1677    8780.9451    1316719.5    70.537512     -15.2731   -41.987335    109.60518    109.60518    109.60518 
  512000    720.11139    22.938333    2223.5826    8793.5543    1316011.7   -29.073501    126.64608   -28.757583    109.58554    109.58554    109.58554 
  513000     752.9267   -71.396778      2144.26     8771.246    1315304.2   -138.56115   -8.1397919   -67.489396     109.5659     109.5659     109.5659 
  514000    774.42644   -37.648849    2149.3985    8699.4939    1314596.9   -33.454169    21.977787   -101.47017    109.54626    109.54626    109.54626 
  515000    760.42116    -97.43672    2154.8583    8735.7713    1313889.9    149.42211   -232.94871   -208.78357    109.52661    109.52661    109.52661 
  516000    761.20705   -1.9478964    2199.3878    8687.5086    1313183.1    1.7949379    71.037852   -78.676479    109.50697    109.50697    109.50697 
  517000    770.42836   -7.9537803    2120.7365     8736.634    1312476.6   -84.948203    39.569328    21.517534    109.48733    109.48733    109.48733 
  518000       758.89    8.0424939    2163.9402    8727.8178    1311770.3    39.231451    12.454381    -27.55835    109.46769    109.46769    109.46769 
  519000    750.34687    3.2640662    2146.5496    8770.0663    1311064.3   -45.654486    108.58984    -53.14316    109.44804    109.44804    109.44804 
  520000    752.71763    3.0540348     2091.069    8816.8715    1310358.6   -184.43506    137.47763    56.119533     109.4284     109.4284     109.4284 
  521000    760.20293    5.2191322    2128.2387    8755.5957      1309653   -112.81267    32.625402    95.844665    109.40876    109.40876    109.40876 
  522000    745.36235    50.387268    2234.6396    8693.4283    1308947.8    93.947925    20.204438    37.009441    109.38912    109.38912    109.38912 
  523000    751.42015   -10.021032    2150.8462    8757.4017    1308242.8   -90.911494    45.478496    15.369901    109.36947    109.36947    109.36947 
  524000     757.8795    10.861032    2132.7518    8754.8058    1307538.1   -7.3539313   -39.506692    79.443721    109.34983    109.34983    109.34983 
  525000    738.68531    8.0677295    2174.5422    8770.3103    1306833.6   -120.11535    97.364869    46.953671    109.33019    109.33019    109.33019 
  526000     742.8223    102.87852    2206.9674    8723.8192    1306129.3    39.112356    92.623419    176.89978    109.31055    109.31055    109.31055 
  527000    767.91099    112.24005    2121.1078    8731.8436    1305425.3    23.909919    206.61123    106.19899     109.2909     109.2909     109.2909 
  528000      744.054    2.7481809    2234.3575    8690.2393    1304721.6   -22.199931    141.74221   -111.29773    109.27126    109.27126    109.27126 
  529000    746.75113   -72.493664    2171.6972    8743.6062    1304018.1   -145.47377    -62.18617    -9.821052    109.25162    109.25162    109.25162 
  530000    742.69734   -148.47243    2194.8716    8731.5094    1303314.9   -91.321867   -212.48165   -141.61379    109.23198    109.23198    109.23198 
  531000    780.69549    11.309067    2053.9655    8755.2321    1302611.9    3.3286129    127.86993   -97.271337    109.21233    109.21233    109.21233 
  532000    760.87972    9.5682386    2112.0917    8756.4015    1301909.2    -87.03945    108.76479    6.9793771    109.19269    109.19269    109.19269 
  533000    735.92523   -36.540217    2199.6514    8743.8332    1301206.7   -139.52869   -25.752711    55.660746    109.17305    109.17305    109.17305 
  534000    753.50287    105.12205    2195.0352    8693.6732    1300504.5    85.713402    70.128573    159.52416     109.1534     109.1534     109.1534 
  535000    764.26387   -1.4718828    2136.4654    8718.3236    1299802.5    10.082227    29.704911   -44.202786    109.13376    109.13376    109.13376 
  536000    759.32404   -156.82925     2102.425    8766.0482    1299100.8   -308.16279   -19.661399   -142.66355    109.11412    109.11412    109.11412 
  537000    764.46835   -80.488355    2141.4806    8709.7284    1298399.4    4.0640261   -1.8349527   -243.69414    109.09448    109.09448    109.09448 
  538000    759.81895    -112.0402    2146.9839    8717.2152    1297698.2   -206.51876   -47.436342   -82.165488    109.07483    109.07483    109.07483 
  539000    746.93805    -23.76734    2109.8665    8792.3831    1296997.2   -85.149482   -2.6857525    16.533213    109.05519    109.05519    109.05519 
  540000     773.4781      43.6807    2105.7377    8714.3853    1296296.5    155.24454    0.8620312   -25.064472    109.03555    109.03555    109.03555 
  541000    775.87357   -1.7989934    2136.0854    8675.5345    1295596.1   -69.189392    32.578451    31.213961    109.01591    109.01591    109.01591 
  542000     748.8153   -122.48907    2098.1531    8794.9801    1294895.9   -63.754402   -86.617122   -217.09569    108.99626    108.99626    108.99626 
  543000    758.92826     77.52242    2094.2637    8766.8906    1294195.9    125.52936    101.79814    5.2397577    108.97662    108.97662    108.97662 
  544000    737.10083    157.86832    2168.0194    8758.6493    1293496.2    156.46987    158.92185    158.21324    108.95698    108.95698    108.95698 
  545000    744.70142    -61.12455    2105.2625    8797.0326    1292796.8   -145.55276   -136.66129    98.840397    108.93734    108.93734    108.93734 
  546000     767.1289    49.010326    2095.8265    8736.7706    1292097.6   -57.788774    89.599532    115.22022    108.91769    108.91769    108.91769 
  547000    744.20763    2.6791283    2080.8751     8820.288    1291398.7    -71.45577    61.844403    17.648751    108.89805    108.89805    108.89805 
  548000    720.70214    -78.84581    2238.2463     8733.376      1290700   -124.80064    -110.6589   -1.0778913    108.87841    108.87841    108.87841 
  549000    720.37762     9.026024    2222.7851    8748.8109    1290001.6   -88.511186    101.89109    13.698172    108.85877    108.85877    108.85877 
  550000    731.35269   -53.100732    2129.1276    8807.6518    1289303.4   -12.235182   -167.36494     20.29792    108.83912    108.83912    108.83912 
  551000    729.92702   -59.933925      2203.12    8736.9577    1288605.5    19.235506    -78.07627   -120.96101    108.81948    108.81948    108.81948 
  552000    749.96816    4.8563724    2114.8111    8762.9384    1287907.8    39.700417   -19.868771   -5.2625286    108.79984    108.79984    108.79984 
  553000    737.11243    23.464122    2163.2096    8752.6574    1287210.4   -65.716728    18.432424    117.67667     108.7802     108.7802     108.7802 
  554000    723.02466   -55.189649    2201.5693     8756.268    1286513.2    30.500936   -113.69962   -82.370268    108.76055    108.76055    108.76055 
  555000    759.67734   -21.850721    2137.2184    8707.6793    1285816.3   -62.082917    20.586061   -24.055307    108.74091    108.74091    108.74091 
  556000    736.59558   0.92530466     2135.222    8778.9369    1285119.6    9.4011275    67.758632   -74.383845    108.72127    108.72127    108.72127 
  557000    768.35191    57.854345    2078.9391    8737.0487    1284423.2   -57.549965    118.08711    113.02589    108.70163    108.70163    108.70163 
  558000    767.81715    38.246897    2084.3614    8731.9639      1283727    87.264299   -96.982687    124.45908    108.68198    108.68198    108.68198 
  559000    748.31211    124.87997     2078.109    8796.7634    1283031.1    153.06516   -2.1119234    223.68668    108.66234    108.66234    108.66234 
  560000    746.01048   -11.812375    2149.8767    8730.7439    1282335.5    21.548718    4.4334779    -61.41932     108.6427     108.6427     108.6427 
  561000    730.47775   -173.69261    2154.5339    8772.3186      1281640   -281.73778   -114.98497   -124.35509    108.62306    108.62306    108.62306 
  562000    724.93986   -50.238433    2187.9807    8754.3827    1280944.9   -84.230034   -72.772416    6.2871496    108.60341    108.60341    108.60341 
  563000    727.90965     50.59177    2174.9239    8757.2553      1280250   -55.134447    60.841472    146.06829    108.58377    108.58377    108.58377 
  564000    758.07939    -12.92102    2156.7961    8682.1301    1279555.3     65.46548    50.300751   -154.52929    108.56413    108.56413    108.56413 
  565000    725.11835   -60.045861    2208.1383    8730.2055    1278860.9   -170.25262    76.038453   -85.923421    108.54449    108.54449    108.54449 
  566000     740.6392   -84.029094    2109.2884    8780.5193    1278166.8   -60.867215    -138.9558   -52.264268    108.52484    108.52484    108.52484 
  567000    710.90843   -68.729387    2248.8272    8730.6668    1277472.9   -181.63726    20.323587   -44.874493     108.5052     108.5052     108.5052 
  568000    743.84383   -166.47425    2121.2366    8756.3163    1276779.2   -237.54853    -81.89023   -179.98399    108.48556    108.48556    108.48556 
  569000    741.67167     45.08505    2136.6533      8746.19    1276085.8   -148.29805    176.17624    107.37696    108.46592    108.46592    108.46592 
  570000     765.7849   -89.858404    2133.6338    8674.1381    1275392.7   -164.31254    -69.06453    -36.19814    108.44627    108.44627    108.44627 
  571000    719.88634    24.140221    2162.7509    8784.1036    1274699.8   -26.162016    -20.39202     118.9747    108.42663    108.42663    108.42663 
  572000    765.18466    67.239208    2111.9018    8695.7189    1274007.1    92.385173   -18.395247     127.7277    108.40699    108.40699    108.40699 
  573000    748.63856   -60.971985    2115.7035    8740.9894    1273314.7   -64.857071   -155.35955    37.300669    108.38735    108.38735    108.38735 
  574000    755.80499    7.0025793    2076.8681    8756.6477    1272622.6   -76.039388   -118.53946    215.58659    108.36771    108.36771    108.36771 
  575000    743.32327    40.859545    2203.0791    8667.3847    1271930.7   -92.279225    74.231473    140.62639    108.34806    108.34806    108.34806 
  576000    754.00206   -108.71644     2097.664    8739.0132    1271239.1    52.324555   -238.74008    -139.7338    108.32842    108.32842    108.32842 
  577000    733.59046   -45.238153    2177.9015    8719.8301    1270547.7    6.6838771    13.592173   -155.99051    108.30878    108.30878    108.30878 
  578000    748.83501    113.45618    2161.5141    8688.4033    1269856.5    173.36283    167.73943  -0.73372124    108.28914    108.28914    108.28914 
  579000    756.61672   -50.128297    2064.5586    8760.2691    1269165.6   -73.960216   -112.63546    36.210788    108.26949    108.26949    108.26949 
  580000    746.73982    26.665417      2163.15    8690.8654      1268475    -19.46386   -77.447045    176.90716    108.24985    108.24985    108.24985 
  581000    732.01035    10.522565     2100.104    8797.6943    1267784.6    102.09077   -71.317571   0.79449251    108.23021    108.23021    108.23021 
  582000    737.73309    8.2084777    2134.8183      8744.49    1267094.5    126.22807    27.671822   -129.27446    108.21057    108.21057    108.21057 
  583000    740.60922    63.980111    2189.1128    8680.2491    1266404.6    130.87359     106.4836   -45.416867    108.19092    108.19092    108.19092 
  584000    744.60181    70.439322    2065.8729    8790.2048    1265714.9    89.935744    38.530603    82.851618    108.17128    108.17128    108.17128 
  585000     728.4955   -49.707967     2156.356     8747.567    1265025.6   -101.14062   -89.050306    41.067027    108.15164    108.15164    108.15164 
  586000    762.25267    85.715829    2065.8331    8734.0334    1264336.4    27.064683    19.703433    210.37937      108.132      108.132      108.132 
  587000    752.13926    66.937317    2062.8123    8766.5809    1263647.5    96.132708    135.20981   -30.530563    108.11235    108.11235    108.11235 
  588000    745.22921    -48.68793    2116.5583    8732.6851    1262958.9    59.239818   -56.224276   -149.07933    108.09271    108.09271    108.09271 
  589000    755.70193    115.14929    2063.9334    8752.1897    1262270.5    166.09266    147.27439     32.08082    108.07307    108.07307    108.07307 
  590000    755.87033   -61.986303    2057.1965    8757.0541    1261582.4    -35.32677    73.425071   -224.05721    108.05343    108.05343    108.05343 
  591000    740.85815   -54.996813    2142.9419    8715.9746    1260894.5   -13.753852   -146.47648    -4.760108    108.03378    108.03378    108.03378 
  592000    716.38787   -39.306515    2121.3195    8811.3518    1260206.9   -40.357102   -14.693883   -62.868561    108.01414    108.01414    108.01414 
  593000    724.22305    94.936137    2204.6169    8702.8082    1259519.5    68.193483    95.986778    120.62815     107.9945     107.9945     107.9945 
  594000    749.25653   -68.883286    2152.7804    8676.9284    1258832.3   -198.58372   -71.888125    63.821984    107.97486    107.97486    107.97486 
  595000    728.72681    57.840285    2113.9629    8777.2238    1258145.4    50.268629      64.4357    58.816527    107.95521    107.95521    107.95521 
  596000    743.64725    27.282663    2161.1213    8683.5737    1257458.8    97.989008    -8.941389   -7.1996297    107.93557    107.93557    107.93557 
  597000    765.43475   -164.10866    2066.0163     8711.049    1256772.4   -149.58807   -132.03868   -210.69922    107.91593    107.91593    107.91593 
  598000    752.08882   -24.320787    2103.5546    8712.8562    1256086.3    79.739232   -72.213277   -80.488314    107.89629    107.89629    107.89629 
  599000     769.1094    32.958591    2088.3136    8674.8412    1255400.4    69.738596     62.16139   -33.024213    107.87664    107.87664    107.87664 
  600000    747.00592    139.77275    2086.1559    8743.2953    1254714.8    259.60179    18.165943     141.5505      107.857      107.857      107.857 
  601000    743.91425    17.759642    2072.5613    8764.9726    1254029.4    95.786175   -70.414206    27.906959    107.83736    107.83736    107.83736 
  602000    751.30173   -30.112164    2084.5882    8729.2122    1253344.2   -93.076645    29.075684    -26.33553    107.81771    107.81771    107.81771 
  603000    748.35171   -12.198159     2079.717    8741.6639    1252659.4   -55.943188   -27.700285    47.048996    107.79807    107.79807    107.79807 
  604000    747.18159   -31.651782    2087.4316    8736.3968    1251974.7   -106.52096    96.921878    -85.35626    107.77843    107.77843    107.77843 
  605000     776.1559   -44.263581    2006.1006    8728.2043    1251290.3    -12.73098   -69.933859   -50.125905    107.75879    107.75879    107.75879 
  606000    751.26362    20.347707    2072.4513    8736.5118    1250606.2   -2.2345583    63.017826   0.25985205    107.73914    107.73914    107.73914 
  607000    762.11443    20.850555    2090.7342    8684.0061    1249922.3     48.92473   -70.752039    84.378975     107.7195     107.7195     107.7195 
  608000    779.74579    70.017719    2000.0798    8719.4756    1249238.7     72.86941   -22.846222    160.02997    107.69986    107.69986    107.69986 
  609000    758.55254    18.152141    2076.1994    8706.6481    1248555.3   -6.0118963   -29.527641    89.995961    107.68022    107.68022    107.68022 
  610000    734.15064   -73.175712     2107.142    8749.1638    1247872.1   -87.449145   -164.17327    32.095273    107.66057    107.66057    107.66057 
  611000    746.59906    114.68108    2076.9059     8740.162    1247189.2    154.02511     133.3139    56.704215    107.64093    107.64093    107.64093 
  612000    726.43285    80.583808    2123.6701    8753.8536    1246506.6    65.247819    56.167399    120.33621    107.62129    107.62129    107.62129 
  613000    738.94623   -2.6400457    2006.1117    8831.9641    1245824.2     77.52142   -16.934179   -68.507377    107.60165    107.60165    107.60165 
  614000    752.02453    182.32945    2069.5448    8727.4423    1245142.1    165.60166    209.16389     172.2228      107.582      107.582      107.582 
  615000    757.17106     6.405236    2004.2085    8775.6725    1244460.2    -32.64055   -50.722698    102.57896    107.56236    107.56236    107.56236 
  616000     764.4836   -35.525176    2051.9004     8704.543    1243778.5   -81.841155    26.812455   -51.546827    107.54272    107.54272    107.54272 
  617000    768.58469    15.483164    2034.6035    8708.1539    1243097.1    37.434999    58.946834   -49.932341    107.52308    107.52308    107.52308 
  618000    746.79414   -43.138837    2041.8998    8766.2056      1242416    62.467544   -46.871473   -145.01258    107.50343    107.50343    107.50343 
  619000    747.29541   -50.866016    2067.1581    8738.3144    1241735.1    32.594441   -122.70001   -62.492477    107.48379    107.48379    107.48379 
  620000    756.24062    24.825209    2000.2401    8776.6328    1241054.4    112.34591    33.679438   -71.549719    107.46415    107.46415    107.46415 
  621000     741.8152    3.8901394    2106.5907    8713.0897      1240374   -18.884812    73.540443   -42.985213    107.44451    107.44451    107.44451 
  622000    748.39368    88.762688    2060.8473     8737.702    1239693.9    51.968256    116.11114    98.208667    107.42486    107.42486    107.42486 
  623000    724.76798    5.2465552    2115.2079     8754.339      1239014     15.47116    70.194287   -69.925782    107.40522    107.40522    107.40522 
  624000    742.28397     8.352454    2151.8534    8663.0425    1238334.3   -6.2712938    113.06691   -81.738256    107.38558    107.38558    107.38558 
  625000    740.77424   -136.55194    2101.9199    8716.2532    1237654.9   -187.63754    27.146125   -249.16441    107.36594    107.36594    107.36594 
  626000    736.11036   -116.65665    2141.2247    8689.8389    1236975.7   -160.30318   -10.398915   -179.26784    107.34629    107.34629    107.34629 
  627000    745.98046    68.483042    2100.1281    8699.5137    1236296.8    188.79275    3.6398456     13.01653    107.32665    107.32665    107.32665 
  628000    762.04074    -80.23999    1987.1778    8762.4174    1235618.2   -82.425635   -11.253428   -147.04091    107.30701    107.30701    107.30701 
  629000    738.21736    184.20611    2059.3489    8761.6154    1234939.7    141.18189    200.36959    211.06685    107.28737    107.28737    107.28737 
  630000    727.06056   -87.404651    2074.3465    8779.6031    1234261.6    -82.78895    5.1150842   -184.54009    107.26772    107.26772    107.26772 
  631000    737.82965   -24.228079    2112.7789    8707.0494    1233583.7    18.687105    6.7843249   -98.155665    107.24808    107.24808    107.24808 
  632000    733.42578   -77.930461    2094.4426    8737.7617      1232906   -173.47207   -18.452457   -41.866856    107.22844    107.22844    107.22844 
  633000     727.1684   -70.472209    2042.1758    8807.8059    1232228.6   -100.04036   -121.14322    9.7669475     107.2088     107.2088     107.2088 
  634000    750.52783   -86.822362    2004.4121    8773.1867    1231551.4   -15.045271   -142.26603   -103.15579    107.18915    107.18915    107.18915 
  635000    742.34419    50.203475    2053.6908    8747.5344    1230874.5   -40.652702   -54.454298    245.71742    107.16951    107.16951    107.16951 
  636000    752.18933     27.58851    2041.9327    8728.2153    1230197.8    32.294035    89.895788   -39.424294    107.14987    107.14987    107.14987 
  637000    742.69306    41.005996    2065.2108    8732.6342    1229521.4    169.06636   -30.805939   -15.242433    107.13023    107.13023    107.13023 
  638000    722.83307   -66.492581    2142.5789      8714.74    1228845.2    5.3351316   -105.44469   -99.368186    107.11059    107.11059    107.11059 
  639000    750.20162   -179.69784    2059.2472    8713.3778    1228169.3   -156.34605   -191.36819   -191.37928    107.09094    107.09094    107.09094 
  640000    727.16869   -125.78234    2149.6055    8692.0269    1227493.6   -119.87059   -106.09945   -151.37698     107.0713     107.0713     107.0713 
  641000    712.84406   -50.798965    2148.5283    8735.8305    1226818.1   -263.96753    6.7439629    104.82667    107.05166    107.05166    107.05166 
  642000    731.91944     108.9196    2131.8446     8692.938    1226142.9    239.51821    126.37598   -39.135401    107.03202    107.03202    107.03202 
  643000    769.29984    8.9015914    2019.0515    8690.3096      1225468    -1.524999    71.389019   -43.159246    107.01237    107.01237    107.01237 
  644000    738.34755    205.64412    2070.1572    8732.3893    1224793.3    245.10801    116.46331    255.36104    106.99273    106.99273    106.99273 
  645000    753.55029   -99.584344    1985.6979    8769.1816    1224118.9   -131.51141   -132.89291   -34.348714    106.97309    106.97309    106.97309 
  646000    718.48097   -130.13568    2140.3686    8720.4465    1223444.7   -338.14547    14.620289   -66.881848    106.95345    106.95345    106.95345 
  647000     751.3023    31.193093    2113.0134    8646.1234    1222770.7   -86.947736    42.012197    138.51482     106.9338     106.9338     106.9338 
  648000    719.65934    146.61113    2186.3034    8668.1224      1222097    110.91639    188.32477    140.59222    106.91416    106.91416    106.91416 
  649000    750.31351    1.7579327     1968.711    8790.6683    1221423.6   -90.918606    76.583371    19.609034    106.89452    106.89452    106.89452 
  650000    740.58714    137.76245    2038.0741    8749.8443    1220750.4    249.73077    72.985077    90.571503    106.87488    106.87488    106.87488 
  651000    725.26312    100.09932    2060.4504    8773.0642    1220077.4    140.31621    6.5814486    153.40031    106.85523    106.85523    106.85523 
  652000    738.91706   -10.906459    2046.7319    8743.7838    1219404.7   -101.45969    58.475633    10.264677    106.83559    106.83559    106.83559 
  653000    728.83473    -57.07313    2145.8094    8674.0853    1218732.2   -70.588085    20.678087   -121.30939    106.81595    106.81595    106.81595 
  654000    739.61538    20.136446    2051.5184     8734.435      1218060    105.04145    27.065198    -71.69731    106.79631    106.79631    106.79631 
  655000    731.19233    77.453134    2112.3732    8698.0924      1217388    147.12404    70.371235    14.864128    106.77666    106.77666    106.77666 
  656000    736.30573   -76.177381    1986.4812    8807.0527    1216716.3   -7.6911824   -101.22662   -119.61434    106.75702    106.75702    106.75702 
  657000    706.36882   -38.245028    2066.8512    8816.6978    1216044.8    20.774397   -97.561367   -37.948114    106.73738    106.73738    106.73738 
  658000    711.67082    116.86411     2123.861    8742.4987    1215373.6    258.59609   -42.682426    134.67867    106.71774    106.71774    106.71774 
  659000    714.06305   -27.869968    2075.9731     8781.841    1214702.6    -47.51222  -0.65220939   -35.445476    106.69809    106.69809    106.69809 
  660000    701.20972   -90.670459    2155.2299    8741.0841    1214031.9   -51.594011   -46.500503   -173.91686    106.67845    106.67845    106.67845 
  661000    714.44918   -10.831071    2129.1129    8725.3932    1213361.4   -20.335839   -19.745206    7.5878298    106.65881    106.65881    106.65881 
  662000    747.98688     74.71441    2028.2188    8722.7185    1212691.1    108.14831    189.00799   -73.013064    106.63916    106.63916    106.63916 
  663000    733.83408    3.9820819    2072.1197    8720.6656    1212021.2    15.274166   -152.18215    148.85423    106.61952    106.61952    106.61952 
  664000    736.67647    6.9031923    2043.7951    8739.2719    1211351.4   -146.58317    110.00552    57.287231    106.59988    106.59988    106.59988 
  665000    753.02297    41.534751    2007.7822    8724.1243    1210681.9   -99.121773    72.573789    151.15224    106.58024    106.58024    106.58024 
  666000    743.73782    26.223584    2004.5768    8754.1243    1210012.6    49.199104    62.521553   -33.049905     106.5606     106.5606     106.5606 
  667000    740.50685     148.4664    2088.0521    8679.6773    1209343.6    242.99124    125.96527    76.442694    106.54095    106.54095    106.54095 
  668000    733.05848     106.5136    2093.5489    8695.7087    1208674.9    177.84307    74.862466    66.835271    106.52131    106.52131    106.52131 
  669000    726.52486    69.880592     2062.249    8745.8134    1208006.4    18.803128    13.055179    177.78347    106.50167    106.50167    106.50167 
  670000    718.47308    1.9674731    2046.2784    8784.9726    1207338.1    -15.58551   -39.489527    60.977456    106.48202    106.48202    106.48202 
  671000    745.81596    22.622642       1992.4     8754.512    1206670.1    45.477931   -16.137155    38.527149    106.46238    106.46238    106.46238 
  672000    714.43246    32.893382    2110.9171    8730.6206    1206002.3    12.286645    48.942146    37.451356    106.44274    106.44274    106.44274 
  673000    747.84487    -30.94034    2019.2665    8718.9615    1205334.8     70.22418   -93.710314   -69.334888     106.4231     106.4231     106.4231 
  674000    721.26741    -12.52353    2112.1821     8706.145    1204667.5   -79.700319    4.3658464    37.763884    106.40345    106.40345    106.40345 
  675000    712.37233    82.244584    2147.8589    8696.5056    1204000.5    58.920633    78.204533    109.60859    106.38381    106.38381    106.38381 
  676000    733.74787    58.704389    2048.7593    8729.1647    1203333.7   -30.167908    11.691388    194.58969    106.36417    106.36417    106.36417 
  677000    743.82315    39.879995    1984.4932    8761.3739    1202667.1    147.54895    22.412426   -50.321393    106.34453    106.34453    106.34453 
  678000    732.25244    42.618201    2079.6794    8700.1665    1202000.8    78.126402    89.109091   -39.380889    106.32488    106.32488    106.32488 
  679000    753.94844   -112.82237    2018.5555    8694.0693    1201334.8   -144.29985   -94.837606   -99.329663    106.30524    106.30524    106.30524 
  680000    743.23929    -129.5273    2033.3506    8710.8101      1200669   -87.675739   -188.47202   -112.43414     106.2856     106.2856     106.2856 
  681000    717.51561   -58.044385     2086.542    8735.1399    1200003.4   -68.719737    20.195786    -125.6092    106.26596    106.26596    106.26596 
  682000     743.7445    -125.8849    2038.9411    8701.2584    1199338.1   -174.89456   -4.7390541   -198.02109    106.24631    106.24631    106.24631 
  683000    716.65505   -16.682924    2104.6786    8716.9713      1198673      39.9765   -61.129921   -28.895352    106.22667    106.22667    106.22667 
  684000    719.89039     127.0753    2092.8448    8717.6664    1198008.2     79.60457    328.43475   -26.813417    106.20703    106.20703    106.20703 
  685000    735.58804   -112.99136    2074.3903    8686.8946    1197343.6   -167.51721    -62.89807    -108.5588    106.18739    106.18739    106.18739 
  686000    719.66572    33.887731    2083.5134    8725.0899    1196679.3   -34.630147    50.581063    85.712276    106.16774    106.16774    106.16774 
  687000    724.80541   -25.391606    2069.8618    8721.9784    1196015.2    51.679854    32.586228    -160.4409     106.1481     106.1481     106.1481 
  688000    714.72926    49.775778    2095.4452    8725.7958    1195351.4    73.585331   -20.351715    96.093718    106.12846    106.12846    106.12846 
  689000     727.3499   0.31406623    2066.5556    8715.2677    1194687.8    69.950161   -102.68455    33.676591    106.10882    106.10882    106.10882 
  690000    756.67325   -17.587219    2016.4041    8674.6736    1194024.4    41.378449   -118.31228    24.172171    106.08917    106.08917    106.08917 
  691000    700.73332    94.534473    2155.3553    8705.3701    1193361.3    32.753148    104.43051    146.41976    106.06953    106.06953    106.06953 
  692000    742.65236   -16.377658    1970.6039    8760.9317    1192698.5   -33.759532   -12.592195    -2.781247    106.04989    106.04989    106.04989 
  693000    739.72837   -2.8501812    2028.1839    8711.1619    1192035.9   -39.931095   -15.390301    46.770852    106.03025    106.03025    106.03025 
  694000    718.31092    1.0350691    2063.9376    8739.5995    1191373.5    64.997596   -100.40988     38.51749     106.0106     106.0106     106.0106 
  695000    712.26245   -100.46391    2088.3349    8732.3967    1190711.4    -125.3991   -125.01343   -50.979184    105.99096    105.99096    105.99096 
  696000    736.80556    14.428142    2070.0257     8674.668    1190049.5      50.2404    61.609707   -68.565682    105.97132    105.97132    105.97132 
  697000    740.53361   -42.738096    1979.3536    8753.0255    1189387.9   -120.20325   -29.408471    21.397429    105.95168    105.95168    105.95168 
  698000    701.76292    83.382005    2117.6734     8731.845    1188726.5    148.88367    65.444579    35.817765    105.93203    105.93203    105.93203 
  699000    727.31969   -91.564097    2071.2256    8699.0161    1188065.4   -124.54282   -126.80134   -23.348137    105.91239    105.91239    105.91239 
  700000    717.46795    5.2217452    2075.0555    8724.1026    1187404.5    98.317111    9.3341533   -91.986028    105.89275    105.89275    105.89275 
  701000    693.46811    45.230383    2126.0398    8745.2472    1186743.8    202.31275      65.3362    -131.9578    105.87311    105.87311    105.87311 
  702000    713.01562   -23.994522    2079.3394    8730.8844    1186083.4   -41.784518    141.28463   -171.48368    105.85346    105.85346    105.85346 
  703000     711.2365   -96.787915    2020.3336    8794.1596    1185423.3   -287.18041    43.501523   -46.684859    105.83382    105.83382    105.83382 
  704000    720.05466    3.6620288    2061.6077    8724.6324    1184763.4    -93.17345    57.143281    47.016255    105.81418    105.81418    105.81418 
  705000    702.91729   -149.34135    2089.4318    8747.8405    1184103.7   -110.34257    -224.5123   -113.16917    105.79454    105.79454    105.79454 
  706000    708.61418   -19.266995    2054.7921     8764.166    1183444.3   -71.925304   -9.6011194    23.725438     105.7749     105.7749     105.7749 
  707000    742.63177   -6.3492398    1988.3571    8725.3167    1182785.1   -47.802594    1.7887619    26.966113    105.75525    105.75525    105.75525 
  708000    733.69548    7.6285628    1995.7508    8744.0876    1182126.2   -7.2902532    35.264193   -5.0882518    105.73561    105.73561    105.73561 
  709000    722.06414   -70.069683     2071.457      8702.79    1181467.5   -64.791125   -106.21445   -39.203471    105.71597    105.71597    105.71597 
  710000    727.54736     154.9955    2060.6957    8695.6214      1180809    107.72264     255.9873    101.27655    105.69633    105.69633    105.69633 
  711000    701.09429   -123.57271    2086.7552    8749.1205    1180150.8   -182.32966   -50.900852   -137.48761    105.67668    105.67668    105.67668 
  712000    735.42452   -91.505202    1996.9131     8732.653    1179492.9   -84.848382   -46.193046   -143.47418    105.65704    105.65704    105.65704 
  713000    704.51327    44.338552     2104.292    8718.3543    1178835.2    112.83484     19.11998    1.0608355     105.6374     105.6374     105.6374 
  714000    731.22388    215.81465    1998.1002    8741.6172    1178177.7    235.42884    233.75315    178.26194    105.61776    105.61776    105.61776 
  715000    703.74442   -204.91926    2118.8957    8703.4645    1177520.5    -246.4128   -58.299595   -310.04538    105.59811    105.59811    105.59811 
  716000    708.02264    115.18426    2090.6823     8717.396    1176863.5    55.703792    139.98384    149.86516    105.57847    105.57847    105.57847 
  717000    735.32138   -16.037447     2079.443    8644.1088    1176206.8    78.193051   -140.62321    14.317818    105.55883    105.55883    105.55883 
  718000    729.69629   -103.43989    2068.2931    8671.2473    1175550.3   -142.82579   -123.56293   -43.930949    105.53919    105.53919    105.53919 
  719000    736.74402   -51.916346     1990.302    8726.4526      1174894   -120.14129    33.980473   -69.588222    105.51954    105.51954    105.51954 
  720000    721.39728    6.6472604    2039.1915    8722.9729      1174238    23.389051    16.111988   -19.559257     105.4999     105.4999     105.4999 
  721000    747.44293   -21.197141    1971.3626    8710.1529    1173582.3   -31.291796    6.2324507   -38.532077    105.48026    105.48026    105.48026 
  722000    706.05153   -98.995362    2058.7573    8747.8795    1172926.8    57.456242    -308.8437   -45.598625    105.46062    105.46062    105.46062 
  723000    724.45908    26.780187    2078.3933    8670.5761    1172271.5     36.14686    134.20398   -90.010282    105.44097    105.44097    105.44097 
  724000    705.29463    45.526532    2064.4573    8742.0985    1171616.5   -59.869274    44.752925    151.69595    105.42133    105.42133    105.42133 
  725000    707.80509    49.335145    2058.2002    8739.3152    1170961.7    119.17969   -11.456815    40.282564    105.40169    105.40169    105.40169 
  726000    712.27866   -49.382872    2063.7906    8718.9743    1170307.2    35.036436   -128.99096    -54.19409    105.38205    105.38205    105.38205 
  727000    719.88968   -99.468337    2036.5939    8721.7281    1169652.9   -93.996571   -94.283558   -110.12488     105.3624     105.3624     105.3624 
  728000    714.71316   -18.213778    2012.6623    8760.2276    1168998.8   -46.975359   -23.538207    15.872234    105.34276    105.34276    105.34276 
  729000    738.56605   -94.702427    1969.8263    8729.1372      1168345   -147.43372   -115.41763   -21.255932    105.32312    105.32312    105.32312 
  730000    734.97211    94.776513    1989.9392    8718.8165    1167691.5    66.517717    193.17347     24.63835    105.30348    105.30348    105.30348 
  731000    716.05866    39.307586    2003.7346    8761.4585    1167038.2    34.122104    80.596606     3.204047    105.28383    105.28383    105.28383 
  732000    721.28034   -61.083524    2066.5343    8681.7088    1166385.1   -142.72275   -37.739809   -2.7880077    105.26419    105.26419    105.26419 
  733000    698.28429   -159.93926    1987.6358    8829.5132    1165732.3   -293.70416   -105.21814   -80.895464    105.24455    105.24455    105.24455 
  734000    721.17303   -24.772852    2010.5252    8735.7523    1165079.7    152.35677   -27.281455   -199.39387    105.22491    105.22491    105.22491 
  735000    709.11939     141.5559    2066.2375    8715.7753    1164427.3    173.57352    170.70998    80.384207    105.20526    105.20526    105.20526 
  736000    712.78606    54.390679    2060.4239    8709.0156    1163775.2    108.80278     9.510118    44.859141    105.18562    105.18562    105.18562 
  737000    701.76516   -33.079915    2098.4663    8703.7306    1163123.4    39.804398   -111.72946   -27.314686    105.16598    105.16598    105.16598 
  738000     710.3877    94.968028    2054.9832    8719.8196    1162471.8    183.70482    162.11778   -60.918517    105.14633    105.14633    105.14633 
  739000    708.59332   -22.879421    2100.2982    8678.9319    1161820.4   -76.797568     10.06447   -1.9051659    105.12669    105.12669    105.12669 
  740000    700.01409    25.513366    2084.5929    8719.6686    1161169.3   -12.806393    56.589397    32.757093    105.10705    105.10705    105.10705 
  741000    710.68141    7.5727434    2022.5496    8748.0512    1160518.4      13.5266    15.575472   -6.3838415    105.08741    105.08741    105.08741 
  742000    714.42242   -107.58651    2073.3581    8684.7405    1159867.8   -73.904116   -123.75656   -125.09884    105.06776    105.06776    105.06776 
  743000    708.92801   -90.320279    2041.5751    8731.9512    1159217.4  -0.73875871   -192.64543   -77.576644    105.04812    105.04812    105.04812 
  744000    704.87681    83.040822    2061.3542     8723.409    1158567.2    143.19795    56.281041    49.643479    105.02848    105.02848    105.02848 
  745000    695.77704    93.094887    2070.5054    8740.7469    1157917.3    125.35894    35.250509    118.67521    105.00884    105.00884    105.00884 
  746000    716.22677   -27.841855    2077.2163     8670.802    1157267.7    36.709413    52.918507   -173.15349    104.98919    104.98919    104.98919 
  747000    715.12324   -82.021073    2008.2324    8741.9624    1156618.2    71.408736   -126.65941   -190.81255    104.96955    104.96955    104.96955 
  748000    723.94202   -127.45165    2002.6467    8719.2594    1155969.1   -145.68323   -72.895937   -163.77578    104.94991    104.94991    104.94991 
  749000    726.82853   -217.07688    1938.7868    8773.4262    1155320.1   -245.71411   -59.796342   -345.72018    104.93027    104.93027    104.93027 
  750000    720.67703   -22.542838    2087.5261    8642.0065    1154671.4   -128.60795    46.810386    14.169054    104.91062    104.91062    104.91062 
  751000    733.32038   -75.727136    1950.4545    8739.0528      1154023   -234.77926   -8.3221627     15.92001    104.89098    104.89098    104.89098 
  752000    720.90073    36.868129    1989.7858    8736.6208    1153374.8    70.436998    18.641777    21.525611    104.87134    104.87134    104.87134 
  753000    726.85668   -23.670537    1964.7547    8742.1811    1152726.8    23.915009   -58.934255   -35.992366     104.8517     104.8517     104.8517 
  754000     735.8835   -50.596407    1942.1646    8735.8796    1152079.1    16.640019   -95.837587   -72.591652    104.83205    104.83205    104.83205 
  755000    709.57364    29.210146     2022.087     8735.157    1151431.6   -47.345559    233.31808   -98.342087    104.81241    104.81241    104.81241 
  756000    736.51216   -83.267675    1951.8059    8722.0107    1150784.4    -90.68924   -67.379136    -91.73465    104.79277    104.79277    104.79277 
  757000    738.43185   -44.843499    1854.6647    8811.9815    1150137.4    179.53459   -177.77042   -136.29467    104.77313    104.77313    104.77313 
  758000    727.95085    30.542662    2007.8417    8689.4466    1149490.6    106.45223    18.733208   -33.557448    104.75348    104.75348    104.75348 
  759000    713.29055     17.39291    2077.6991    8663.0709    1148844.1   -53.290874    7.4126917    98.056913    104.73384    104.73384    104.73384 
  760000     710.5295   -73.431335    2030.4954    8717.4614    1148197.9     -124.954    43.897758   -139.23776     104.7142     104.7142     104.7142 
  761000    702.78971   -139.85914    2135.7787    8634.7976    1147551.8   -91.250211   -196.87438   -131.45283    104.69456    104.69456    104.69456 
  762000    720.86281   0.62032444    2040.4238    8673.7869    1146906.1   -90.592212    38.764188    53.688998    104.67491    104.67491    104.67491 
  763000    724.72988    176.72003    1998.0607    8703.2927    1146260.5     94.85399     248.2093    187.09681    104.65527    104.65527    104.65527 
  764000    717.85979    25.675773    2000.1957    8720.9192    1145615.2    122.02529   -3.6710534   -41.326918    104.63563    104.63563    104.63563 
  765000     699.0829    47.706393    2050.6309    8726.9348    1144970.2    61.459796   -62.946745    144.60613    104.61599    104.61599    104.61599 
  766000    718.16279    60.064028    1977.5395    8740.7513    1144325.4    65.169367    156.81625   -41.793533    104.59634    104.59634    104.59634 
  767000    696.86158    26.305174    2073.7246    8708.3996    1143680.8   -38.883068    155.89783   -38.099245     104.5767     104.5767     104.5767 
  768000    687.92543   -23.023839    2079.4345    8728.8864    1143036.5   -68.824067   -8.6305562    8.3831064    104.55706    104.55706    104.55706 
  769000    711.96621   -9.8202328    2073.9433    8659.8781    1142392.4     118.2342   -116.34637   -31.348527    104.53742    104.53742    104.53742 
  770000    729.62152    90.506895    1961.0289    8717.7859    1141748.5    134.01945     8.920361    128.58088    104.51778    104.51778    104.51778 
  771000    698.57197    27.685824    2017.1324    8755.4051    1141104.9    98.620849   -15.225201  -0.33817628    104.49813    104.49813    104.49813 
  772000    753.18214    -38.64274    1878.0517    8726.6701    1140461.6   -102.20261      103.515   -117.24061    104.47849    104.47849    104.47849 
  773000    728.63669   -22.283125    1975.6787    8702.6973    1139818.5   -121.99637   -94.271202     149.4182    104.45885    104.45885    104.45885 
  774000    717.23443   -133.02462    2062.1891    8649.7005    1139175.6   -142.29203   -168.19951   -88.582313    104.43921    104.43921    104.43921 
  775000    711.95209   -66.990371    2023.2721    8703.6298      1138533     22.24924    -125.2022   -98.018157    104.41956    104.41956    104.41956 
  776000    735.35121   -102.64871    1954.6959    8699.6051    1137890.6   -177.56851   -30.225555   -100.15206    104.39992    104.39992    104.39992 
  777000    716.34985    67.509305    2036.2659    8674.6531    1137248.4   -1.9351661    215.66552   -11.202438    104.38028    104.38028    104.38028 
  778000    747.33035     100.8744      1909.65    8705.8953    1136606.5    98.933888    55.584289    148.10504    104.36064    104.36064    104.36064 
  779000    725.68882    53.182805    1950.9717    8729.3796    1135964.8   -78.124501    240.83135   -3.1584312    104.34099    104.34099    104.34099 
  780000    721.41951   -150.58267    1986.9804    8705.2043    1135323.4    -235.1804   -83.046629   -133.52097    104.32135    104.32135    104.32135 
  781000    707.99702    -65.97808    2000.3795    8731.5065    1134682.2   -159.87339   -5.5880556   -32.472794    104.30171    104.30171    104.30171 
  782000    722.79707      25.2232    1981.1731    8704.3193    1134041.3   -43.492719    143.49032   -24.327997    104.28207    104.28207    104.28207 
  783000    710.49211    64.698586     2048.286     8673.534    1133400.6    134.42924   -56.868794    116.53531    104.26242    104.26242    104.26242 
  784000    725.60226    56.291272    1941.2092    8733.5893    1132760.1    69.349222    85.425406    14.099187    104.24278    104.24278    104.24278 
  785000    722.43198   -24.224007    1970.0828    8712.9987    1132119.9   -110.79278     62.62432   -24.503567    104.22314    104.22314    104.22314 
  786000    724.30125   -73.595619    1947.4683    8728.4705    1131479.9    3.7803507   -67.274764   -157.29244     104.2035     104.2035     104.2035 
  787000    695.03617   -45.025248     1990.146    8774.3341    1130840.2   -151.12285   -32.909639    48.956749    104.18385    104.18385    104.18385 
  788000    703.40538   -67.295467    2036.6703    8700.7614    1130200.7   -143.11753    62.552776   -121.32165    104.16421    104.16421    104.16421 
  789000     693.6325   -56.870144    2037.9783    8728.2834    1129561.4   -171.40652  -0.41210715    1.2081931    104.14457    104.14457    104.14457 
  790000    723.01708     -66.5932    1946.2336     8729.373    1128922.4   -182.38333   -93.387391    75.991122    104.12493    104.12493    104.12493 
  791000    703.86594   -32.213585    2062.8442    8669.7291    1128283.7   -59.347038    68.561708   -105.85542    104.10528    104.10528    104.10528 
  792000    719.39768    46.027194    1963.7155    8720.4895    1127645.1   -75.916968    91.468666    122.52989    104.08564    104.08564    104.08564 
  793000    724.75837    52.395515    2017.5052    8649.0887    1127006.8   -47.106114    190.36996    13.922702      104.066      104.066      104.066 
  794000    713.68994    7.3262496    2024.4344    8674.8527    1126368.8   -11.433674    19.672583    13.739841    104.04636    104.04636    104.04636 
  795000    687.54759  -0.72995443    2042.2298    8735.5508      1125731    87.831211   -62.829615    -27.19146    104.02671    104.02671    104.02671 
  796000    705.02339    33.374044    2057.0865    8666.1194    1125093.4    213.38407   -1.0823842   -112.17956    104.00707    104.00707    104.00707 
  797000    728.92791   -28.673232    1942.0488    8706.9362    1124456.1   -164.81072   0.44316124     78.34786    103.98743    103.98743    103.98743 
  798000    746.31249     231.1592    1929.1624    8665.7797      1123819     139.8467    280.39264    273.23826    103.96778    103.96778    103.96778 
  799000    729.21196   -26.416422    1875.6807    8770.0955    1123182.2    78.974817   -30.314532   -127.90955    103.94814    103.94814    103.94814 
  800000    731.08863    -61.46095    1943.1292    8695.8814    1122545.6   -86.504154   -64.964003   -32.914692     103.9285     103.9285     103.9285 
  801000    734.94854     28.61549    1921.9737    8704.0318    1121909.2   -16.434911    170.65432   -68.372933    103.90886    103.90886    103.90886 
  802000    741.46559   -123.02929     1960.367     8644.592    1121273.1     -268.751   -110.37239    10.035506    103.88921    103.88921    103.88921 
  803000    715.52966   -45.879996    1940.4531    8742.3704    1120637.2    25.546658   -100.71075     -62.4759    103.86957    103.86957    103.86957 
  804000    728.50736   -143.56212    1971.8311    8670.0847    1120001.6   -153.94413   -191.65622   -85.085995    103.84993    103.84993    103.84993 
  805000    729.96867   -35.079752    1911.8958     8724.424    1119366.2      19.2169    34.334115   -158.79027    103.83029    103.83029    103.83029 
  806000    707.15525    25.630215    2001.2126    8703.7588      1118731    89.855961   -6.7105386   -6.2547788    103.81064    103.81064    103.81064 
  807000    722.24813   -194.57785    1938.1452    8719.5275    1118096.1   -158.38773   -167.65533   -257.69048      103.791      103.791      103.791 
  808000    695.14263    5.6747383    2065.2886    8673.8031    1117461.4    75.677696    10.156887   -68.810367    103.77136    103.77136    103.77136 
  809000    701.20067    30.166567    2046.3824    8673.0406    1116826.9    39.517338   -54.792442    105.77481    103.75172    103.75172    103.75172 
  810000    710.69122    22.266667    1963.9898     8725.181    1116192.7    37.345579   -18.437823    47.892247    103.73207    103.73207    103.73207 
  811000    720.37743   -285.13191     1964.379    8693.8789    1115558.8   -239.83909   -250.31537   -365.24128    103.71243    103.71243    103.71243 
  812000    699.31822    22.696485    1988.4363    8732.9367    1114925.1    -1.700423    143.47166   -73.681781    103.69279    103.69279    103.69279 
  813000    691.04789   -40.357875    2006.9022    8738.4399    1114291.6   -37.442358   -125.20618    41.574914    103.67315    103.67315    103.67315 
  814000    708.76572     71.61684    2005.9393    8684.3609    1113658.3    59.982217    82.050084    72.818218     103.6535     103.6535     103.6535 
  815000     711.0407   -15.847062    1996.3331    8685.8105    1113025.3    -233.7362    150.94185    35.253159    103.63386    103.63386    103.63386 
  816000    713.78907   -41.982277    1942.0362    8730.5487    1112392.6    -52.69413   -14.352659   -58.900041    103.61422    103.61422    103.61422 
  817000     713.3628    1.4458725    1946.6109    8725.9614    1111760.1 -0.096809574   -28.404037    32.838464    103.59458    103.59458    103.59458 
  818000    697.27012    23.348816    1980.3164    8739.8118    1111127.8   -10.530332   -19.491944    100.06872    103.57493    103.57493    103.57493 
  819000    697.88172    53.297976    2012.1754    8704.9335    1110495.7    105.60741    147.52164   -93.235125    103.55529    103.55529    103.55529 
  820000    700.63702     97.69089     2008.438     8699.231    1109863.9    110.14813    111.35206    71.572471    103.53565    103.53565    103.53565 
  821000    693.02545    65.474862    2020.3862    8709.1228    1109232.4   -86.370732    141.49705    141.29827    103.51601    103.51601    103.51601 
  822000    726.08895    151.27622    1960.2213    8667.2784    1108601.1    210.61184    152.84827    90.368562    103.49636    103.49636    103.49636 
  823000    718.64207   -95.056742    1927.5232    8721.6121      1107970    71.488222   -183.64416   -173.01428    103.47672    103.47672    103.47672 
  824000    733.90031    28.830571    1869.2012    8732.2512    1107339.1    7.1063945    126.70227   -47.316957    103.45708    103.45708    103.45708 
  825000    706.49107  -0.58434683      2011.91    8671.9111    1106708.5   -3.9834718   -39.888389     42.11882    103.43744    103.43744    103.43744 
  826000    694.77904   -62.305209    1947.6331    8770.8674    1106078.2    18.831177   -84.827337   -120.91947    103.41779    103.41779    103.41779 
  827000     711.0814    -13.86466    1962.0204    8705.6413      1105448    145.31611   -151.28663   -35.623461    103.39815    103.39815    103.39815 
  828000    710.56168    89.093759    2025.3722    8642.7316    1104818.2    186.48263    77.504918    3.2937291    103.37851    103.37851    103.37851 
  829000    718.90382   -30.896523    1946.7016       8694.7    1104188.5   -65.912854   -32.083678    5.3069639    103.35887    103.35887    103.35887 
  830000    723.12484    76.076464    1946.1777    8681.0785    1103559.1    112.28733    91.899415    24.042643    103.33922    103.33922    103.33922 
  831000    705.17777   -46.636333    2025.4574    8655.0936    1102929.9   -63.337604   -17.763799   -58.807594    103.31958    103.31958    103.31958 
  832000    709.13624    -179.8244     1984.171    8682.9874      1102301   -160.91071   -188.29773   -190.26474    103.29994    103.29994    103.29994 
  833000    708.24264   -38.029552    2003.0829      8665.59    1101672.3   -52.248782   -3.6509981   -58.188876     103.2803     103.2803     103.2803 
  834000    709.88222   -8.9893391    1989.5828    8672.9714    1101043.9   -16.221552   -58.201304    47.454838    103.26065    103.26065    103.26065 
  835000    706.06536    35.366913    1958.1281    8714.9072    1100415.7   -37.852279  0.074758342    143.87826    103.24101    103.24101    103.24101 
  836000     716.7984     -105.804    1964.5218    8674.5639    1099787.7   -145.46219    1.6966197   -173.64643    103.22137    103.22137    103.22137 
  837000    716.86457    -64.41379    1945.3611    8692.2993      1099160   -56.745389   -100.06853    -36.42745    103.20173    103.20173    103.20173 
  838000    690.93858     71.88492    1982.6867    8732.8809    1098532.5    8.9495073   -19.375335    226.08059    103.18209    103.18209    103.18209 
  839000    688.81575   -176.11222    1975.3788    8745.3525    1097905.2   -84.597912   -132.31297   -311.42576    103.16244    103.16244    103.16244 
  840000     718.1298   -101.25873    1939.7656    8690.3352    1097278.2   -142.48393   -169.53095    8.2386752     103.1428     103.1428     103.1428 
  841000    686.48666    86.465167    2038.2451    8687.2858    1096651.4    51.454899   -40.219173    248.15978    103.12316    103.12316    103.12316 
  842000    683.89135   -40.483588    2023.5123    8708.9115    1096024.9    -65.54613    77.429577   -133.33421    103.10352    103.10352    103.10352 
  843000     685.9709   -181.37203    2056.2745    8668.6043    1095398.6   -177.52788   -91.117572   -275.47064    103.08387    103.08387    103.08387 
  844000    687.65171    25.460372    2040.4094    8678.2434    1094772.5   -12.405132    10.090186    78.696063    103.06423    103.06423    103.06423 
  845000    707.92715    150.13097    2040.6267    8614.9797    1094146.7    140.86046    186.62301    122.90943    103.04459    103.04459    103.04459 
  846000     673.4116    11.451263    2043.5718    8716.2542    1093521.1    30.920327    98.852832   -95.419371    103.02495    103.02495    103.02495 
  847000    696.03629   -19.864967    2055.3692    8634.4654    1092895.8   -42.409959   -43.056192     25.87125     103.0053     103.0053     103.0053 
  848000    690.02025    134.02294    2014.6264    8692.2362    1092270.7    223.31914     143.6366    35.113058    102.98566    102.98566    102.98566 
  849000    672.18735   -80.592444    2029.2896    8730.9251    1091645.8    -144.8826   -11.094214   -85.800513    102.96602    102.96602    102.96602 
  850000    715.02333    154.19756    1907.6183    8720.5231    1091021.2     259.3068    114.37819    88.907685    102.94638    102.94638    102.94638 
  851000    704.14994   -101.27885    1937.3514    8722.9695    1090396.8   -45.138765   -179.26658   -79.431214    102.92673    102.92673    102.92673 
  852000    712.44853    22.279767    1907.0272    8726.7775    1089772.6    79.725665    12.115382   -25.001746    102.90709    102.90709    102.90709 
  853000    696.69366  -0.98725912    1985.9066    8694.8295    1089148.7   -6.2390359   -10.869966    14.147224    102.88745    102.88745    102.88745 
  854000    707.69233    10.946921    1913.4013    8732.5377      1088525    20.327857    88.162462   -75.649557    102.86781    102.86781    102.86781 
  855000    703.27235    132.64612    1950.4659    8707.5025    1087901.6    1.6580374     245.0033    151.27703    102.84816    102.84816    102.84816 
  856000     697.7633   -22.716547    1939.6837    8734.1753    1087278.4    8.8861559    18.860922   -95.896719    102.82852    102.82852    102.82852 
  857000     700.7304   -82.543328    1963.3518    8700.2386    1086655.4   -119.35831   -125.04312   -3.2285528    102.80888    102.80888    102.80888 
  858000    707.00935    48.684572    1905.0278    8738.2214    1086032.7    190.47626     48.25172   -92.674267    102.78924    102.78924    102.78924 
  859000    686.81689   -118.39057    2025.1869    8678.3771    1085410.2    29.387018   -93.876769   -290.68196    102.76959    102.76959    102.76959 
  860000    712.09336   -17.129894    1930.1587    8695.2085      1084788   -42.742093    124.55106   -133.19865    102.74995    102.74995    102.74995 
  861000    713.43128    104.23362    1916.1472    8704.0912      1084166    39.473162     46.93752    226.29017    102.73031    102.73031    102.73031 
  862000    683.53005    6.3366976    2014.4697     8695.793    1083544.2    18.857564    97.746875   -97.594347    102.71067    102.71067    102.71067 
  863000    728.11963    76.949621    1868.8246    8704.0294    1082922.6    6.5139945    145.18035    79.154518    102.69102    102.69102    102.69102 
  864000    709.63863    1.6298462    1962.4122    8665.6219    1082301.3    56.590118   -95.641667    43.941087    102.67138    102.67138    102.67138 
  865000    706.85626   -118.26253    1931.6065    8703.4641    1081680.3   -24.235744   -91.086268   -239.46558    102.65174    102.65174    102.65174 
  866000    700.90181    30.063368    1950.9194    8701.1601    1081059.5     120.1864   -23.089136   -6.9071597    102.63209    102.63209    102.63209 
  867000    693.35975    76.507931    1990.7068    8683.2718    1080438.9    134.37638    97.395256   -2.2478413    102.61245    102.61245    102.61245 
  868000    698.54823   -30.066205    1935.6291    8721.5776    1079818.5    22.744592    28.687184   -141.63039    102.59281    102.59281    102.59281 
  869000    695.81693    26.751455    1957.1213     8706.595    1079198.4    28.074859    92.102803   -39.923298    102.57317    102.57317    102.57317 
  870000    695.64962    97.155974    1990.7446    8672.6303    1078578.5    -69.37941    39.232853    321.61448    102.55353    102.55353    102.55353 
  871000    716.47051   -9.2619498    1921.9692    8676.8165    1077958.9    46.611029   -147.49726    73.100379    102.53388    102.53388    102.53388 
  872000    689.64608    15.160402    1940.2819    8739.2878    1077339.5    30.337714   -15.302646    30.446138    102.51424    102.51424    102.51424 
  873000     690.3756     13.89657    1956.9581    8719.4289    1076720.4    58.569884   -24.012175    7.1320022     102.4946     102.4946     102.4946 
  874000    685.05521   -123.20691    2012.2924    8679.2654    1076101.4   -211.92947    64.686157   -222.37742    102.47495    102.47495    102.47495 
  875000    709.36616    67.545554     1949.884    8666.3114    1075482.7     151.9365    114.08152   -63.381358    102.45531    102.45531    102.45531 
  876000    704.38328    66.822937    1932.6966    8697.6745    1074864.3    121.56432   -72.512854    151.41735    102.43567    102.43567    102.43567 
  877000    693.29649     3.017215    1971.6495    8691.1878    1074246.1     11.81866   -29.694788    26.927773    102.41603    102.41603    102.41603 
  878000    688.10815    17.459175    1939.6661    8738.0972    1073628.1    40.019093   -65.973528    78.331961    102.39638    102.39638    102.39638 
  879000      699.275   -10.606757    1890.3211    8751.8561    1073010.4    53.704146    -97.75221    12.227795    102.37674    102.37674    102.37674 
  880000    690.60897   -3.7583823    1942.6553    8724.7168    1072392.9    -86.93706     8.963819    66.698094     102.3571     102.3571     102.3571 
  881000    696.74417   -55.498157    1952.3624    8695.1537    1071775.6   -45.491909   -7.6940939   -113.30847    102.33746    102.33746    102.33746 
  882000    696.15961   -84.792563    1970.5901     8677.201    1071158.6   -189.52696   -62.695052   -2.1556782    102.31781    102.31781    102.31781 
  883000    702.09005    120.98244    1907.1543    8721.5642    1070541.8    217.54223     164.6635   -19.258405    102.29817    102.29817    102.29817 
  884000     706.6792    90.893758    1926.6806    8686.8651    1069925.2    150.00321    12.937986    109.74008    102.27853    102.27853    102.27853 
  885000     706.8422    88.929402    1877.5426    8734.3468    1069308.9    313.48494    83.731384   -130.42811    102.25889    102.25889    102.25889 
  886000    714.50699    -104.0249    1876.5386    8710.7891    1068692.8    -85.54571   -193.65118   -32.877824    102.23924    102.23924    102.23924 
  887000    707.99912   -42.877078    1898.4587    8707.3043      1068077    29.680656   -128.62569   -29.686206     102.2196     102.2196     102.2196 
  888000    692.36367    37.126195    1965.9558    8686.6162    1067461.4   -109.87904    33.366365    187.89126    102.19996    102.19996    102.19996 
  889000    700.41101    16.763224    1943.9349     8682.623      1066846   -97.232442    35.436593    112.08552    102.18032    102.18032    102.18032 
  890000    700.20288    181.96927    1939.1719     8686.914    1066230.9    206.82226    186.29699    152.78856    102.16067    102.16067    102.16067 
  891000    707.19158    -39.27779    1903.2346    8700.4028      1065616  -0.64466509   -47.749494   -69.439211    102.14103    102.14103    102.14103 
  892000    675.66791    116.09599    2037.8524     8660.937    1065001.3    83.002294    97.966656    167.31903    102.12139    102.12139    102.12139 
  893000    718.87776    66.001845    1882.4835    8683.0388    1064386.9   -152.50439    129.80072    220.70921    102.10175    102.10175    102.10175 
  894000    712.21021    160.95732    1886.1839    8698.7404    1063772.7    174.80688    21.288873    286.77621     102.0821     102.0821     102.0821 
  895000    712.92821    -72.38159    1853.1422    8728.2635    1063158.8   -179.01867    47.401179   -85.527283    102.06246    102.06246    102.06246 
  896000    692.33242    -137.1791      1992.39     8650.761    1062545.1   -62.203127   -92.879387   -256.45479    102.04282    102.04282    102.04282 
  897000    692.56024    24.887323    1862.2945    8779.0954    1061931.6    172.14675   -51.357825   -46.126955    102.02318    102.02318    102.02318 
  898000    706.35872    -204.8224    1911.3935    8686.6144    1061318.3   -156.44787   -83.419292   -374.60003    102.00353    102.00353    102.00353 
  899000    703.73393    108.72915    1912.2942    8692.4002    1060705.3     28.98561    11.092196    286.10964    101.98389    101.98389    101.98389 
  900000      690.953    15.579617    1886.3059     8756.175    1060092.6    111.38916    102.59162   -167.24192    101.96425    101.96425    101.96425 
  901000    673.67731   -15.768972    2016.7446    8677.3678      1059480    50.061525    24.876603   -122.24504    101.94461    101.94461    101.94461 
  902000    687.74921    8.9409652    1966.1833     8683.699    1058867.7    34.828199   -126.35292    118.34762    101.92497    101.92497    101.92497 
  903000    702.16766    20.118642    1905.9806     8698.808    1058255.7    29.184109   -68.460664     99.63248    101.90532    101.90532    101.90532 
  904000     696.2312   -73.668081    1924.4158    8697.3956    1057643.8   -99.303357   -115.48259   -6.2183012    101.88568    101.88568    101.88568 
  905000    700.38852    17.340551    1942.7829     8665.183    1057032.3    -8.977061    25.089196    35.909517    101.86604    101.86604    101.86604 
  906000    696.58426    192.96592    1882.6367    8735.7161    1056420.9    137.10595     204.7092    237.08262     101.8464     101.8464     101.8464 
  907000     728.6635    147.69622    1809.5775    8709.6795    1055809.8    246.50222    156.20902    40.377429    101.82675    101.82675    101.82675 
  908000    684.95741    13.225062    1959.6923    8691.7388    1055198.9    77.164357   -21.622005   -15.867166    101.80711    101.80711    101.80711 
  909000    688.95873   -98.388478    1948.6268     8689.639    1054588.2   -76.556305   -69.351075   -149.25806    101.78747    101.78747    101.78747 
  910000    703.83111    105.89253     1895.035    8696.5371    1053977.8    96.200864    213.66991    7.8068239    101.76783    101.76783    101.76783 
  911000    694.05833   -81.553996    1938.9505    8681.4421    1053367.7   -14.354116   -43.202041   -187.10583    101.74818    101.74818    101.74818 
  912000    698.42162   -27.146831    1951.8303    8653.9664    1052757.7    10.013356      54.6297   -146.08355    101.72854    101.72854    101.72854 
  913000    677.86885    110.89938    1927.6948    8739.5893      1052148     112.7688    181.49335     38.43599     101.7089     101.7089     101.7089 
  914000    711.50076 -0.043004523    1846.5195    8716.9034    1051538.5   -55.141735   -68.582772    123.59549    101.68926    101.68926    101.68926 
  915000    691.21759    3.8169763     1915.297    8708.8869    1050929.3    92.056393    17.444558   -98.050022    101.66961    101.66961    101.66961 
  916000    710.08111     20.00077    1843.6094    8721.5956    1050320.3   -68.223023    29.637986    98.587345    101.64997    101.64997    101.64997 
  917000    722.69578    107.94882    1838.7802    8686.7195    1049711.5     81.81723    6.1449876    235.88424    101.63033    101.63033    101.63033 
  918000    695.96571   -53.772931    1898.6661    8707.2704      1049103   -32.223496   -121.70533   -7.3899637    101.61069    101.61069    101.61069 
  919000    677.13795   -89.203548    1968.1579     8694.244    1048494.7   -88.358315   -228.95622    49.703886    101.59104    101.59104    101.59104 
  920000    689.72603    65.277966    1966.9795    8655.4049    1047886.7    73.828162    114.96767     7.038067     101.5714     101.5714     101.5714 
  921000     682.7883    58.450905    1934.5297    8707.9925    1047278.8   -3.9270748    162.63484    16.644953    101.55176    101.55176    101.55176 
  922000    683.05312    73.088397    1997.8661    8642.7434    1046671.3    192.96669   -24.320595    50.619099    101.53212    101.53212    101.53212 
  923000      677.258   -25.147239    1960.2774    8696.8477    1046063.9    101.05612   -46.665891   -129.83194    101.51247    101.51247    101.51247 
  924000    699.64417    21.408482    1910.5073    8677.3428    1045456.8    20.441437    82.611292   -38.827282    101.49283    101.49283    101.49283 
  925000    680.23495   -76.757204    1930.2703    8715.5779    1044849.9   -39.506384   -10.728084   -180.03714    101.47319    101.47319    101.47319 
  926000    694.04451   -82.756737    1918.2759    8684.1409    1044243.3   -128.75901   -114.49088   -5.0203205    101.45354    101.45354    101.45354 
  927000     691.5522   -84.649475     1901.099    8707.8036    1043636.8   -69.691555   -60.988174   -123.26869     101.4339     101.4339     101.4339 
  928000     688.1565   -164.61547    1960.2139    8657.7168    1043030.7   -74.400652    -242.5373   -176.90845    101.41426    101.41426    101.41426 
  929000    672.43087   -72.294425    1944.4841    8720.2492    1042424.7   -207.30042   -20.776257    11.193399    101.39462    101.39462    101.39462 
  930000    694.93547   -109.05224    1887.7796    8707.0269      1041819   -142.66416   -119.22095   -65.271613    101.37498    101.37498    101.37498 
  931000     710.6806   -111.59703    1881.4103    8663.9807    1041213.5   -123.28273   -151.78956   -59.718812    101.35533    101.35533    101.35533 
  932000    704.10394   -122.08687    1898.0096    8666.3527    1040608.3    -109.2158   -53.848643   -203.19618    101.33569    101.33569    101.33569 
  933000    684.16954   -31.915847    1941.7362    8682.3647    1040003.3    35.753469    -153.5785    22.077486    101.31605    101.31605    101.31605 
  934000    680.06334   -47.128431    1929.4506    8705.7932    1039398.5   -187.13715    23.368676    22.383181     101.2964     101.2964     101.2964 
  935000    681.69539   -132.17248    1962.8265    8666.2477      1038794   -245.71274    5.8340492   -156.63873    101.27676    101.27676    101.27676 
  936000    681.75721   -16.449818    1937.9075    8689.9196    1038189.7    28.085262    30.352091   -107.78681    101.25712    101.25712    101.25712 
  937000    693.87697     69.82862    1936.1676    8653.3932    1037585.6   -23.785005     164.6733    68.597563    101.23748    101.23748    101.23748 
  938000    679.11825   -26.138727    1965.4247    8667.9557    1036981.8   -147.54277    84.331436   -15.204848    101.21784    101.21784    101.21784 
  939000    682.93247    26.898231    1970.0259    8650.6407    1036378.2    119.15711   -4.5113023   -33.951111    101.19819    101.19819    101.19819 
  940000    659.32413     -141.204    2004.0202    8687.5758    1035774.8   -142.37552   -216.65092   -64.585555    101.17855    101.17855    101.17855 
  941000    668.79428    -114.5116    1961.7704    8699.7744    1035171.7   -110.21081   -125.02819   -108.29578    101.15891    101.15891    101.15891 
  942000    686.69443    198.18572    1946.8438    8658.9084    1034568.8    82.915189    99.637388    412.00458    101.13926    101.13926    101.13926 
  943000    678.41715   -123.58372    1933.0226    8696.6615    1033966.1   -177.89373   -148.45889   -44.398533    101.11962    101.11962    101.11962 
  944000    685.03334    102.90457    1898.9269    8709.4337    1033363.7    5.0143521    105.49379    198.20556    101.09998    101.09998    101.09998 
  945000    673.01386    -140.5719    1964.9078    8678.8998    1032761.5   -83.584215   -77.607483     -260.524    101.08034    101.08034    101.08034 
  946000     677.6715   -30.676018    1931.2583    8697.2537    1032159.6    11.275575    -34.76419   -68.539438     101.0607     101.0607     101.0607 
  947000    705.99272    -89.83087     1871.808    8668.6113    1031557.8   -102.73145    6.9175188   -173.67868    101.04105    101.04105    101.04105 
  948000    672.59059   -88.547251    1920.0398    8721.3241    1030956.3   -152.96888   -15.263939    -97.40893    101.02141    101.02141    101.02141 
  949000    699.04876    52.575456    1929.6752    8629.9408    1030355.1   -56.376079     56.80282    157.29963    101.00177    101.00177    101.00177 
  950000    673.99688   -67.502609    1966.6999    8668.0699    1029754.1      46.5997    -77.13851   -171.96902    100.98212    100.98212    100.98212 
  951000    681.89498    -195.4937    1901.8754    8707.4378    1029153.3   -262.45522   -143.54104   -180.48483    100.96248    100.96248    100.96248 
  952000    676.74565    109.26889    1907.5126    8716.0061    1028552.7    76.747976    76.552271    174.50643    100.94284    100.94284    100.94284 
  953000    683.26801    14.079866    1879.0985    8723.3879    1027952.4    38.031892    68.164377   -63.956672     100.9232     100.9232     100.9232 
  954000    680.64691    31.099003    1880.5484    8728.8395    1027352.3   -12.004617     17.86274    87.438888    100.90355    100.90355    100.90355 
  955000    709.99163   -22.205951    1860.5445    8657.7068    1026752.5   -16.596331    53.982786   -104.00431    100.88391    100.88391    100.88391 
  956000    673.32312   -19.762004    1941.3196    8687.7512    1026152.8   -69.571624    110.74017   -100.45456    100.86427    100.86427    100.86427 
  957000    706.99306   -200.20764    1873.5973    8651.3525    1025553.4   -214.23838    -153.7602   -232.62434    100.84463    100.84463    100.84463 
  958000    709.35455   -32.024938    1849.9534    8666.6881    1024954.3   -21.680295   -13.651196   -60.743323    100.82498    100.82498    100.82498 
  959000    710.26822   -176.03054    1810.3449    8702.3378    1024355.4   -128.95933   -195.00633   -204.12596    100.80534    100.80534    100.80534 
  960000    699.05344   -4.2792391    1857.5573     8688.435    1023756.7    48.752226   -22.644648   -38.945296     100.7857     100.7857     100.7857 
  961000    683.73943    114.67235    1890.1466      8701.18    1023158.2    122.96533    142.37928    78.672448    100.76606    100.76606    100.76606 
  962000    695.00127   -18.428109    1835.2127    8720.4723      1022560    -64.70844    52.687107   -43.262993    100.74641    100.74641    100.74641 
  963000    676.89585   -41.646496    1904.7936    8705.0915      1021962     23.29621    -6.976493    -141.2592    100.72677    100.72677    100.72677 
  964000    685.20963   -36.315464     1891.898    8690.9658    1021364.3   -7.2595396   -76.069092   -25.617761    100.70713    100.70713    100.70713 
  965000    700.26667   -86.418701    1878.4361    8657.2341    1020766.7   -70.129594   -100.27048   -88.856023    100.68749    100.68749    100.68749 
  966000    679.07963   -13.981084    1886.7093    8712.3774    1020169.5   -26.077607   -72.587755     56.72211    100.66784    100.66784    100.66784 
  967000    699.71318   -11.334617    1833.2595    8701.7102    1019572.4    110.23246   -22.118864   -122.11745     100.6482     100.6482     100.6482 
  968000    709.43568    54.446974    1845.4164    8658.3642    1018975.6    99.891265   -22.962156    86.411812    100.62856    100.62856    100.62856 
  969000    695.31945    16.063238    1887.8145    8657.6716      1018379   -11.960316   -6.6709106    66.820942    100.60892    100.60892    100.60892 
  970000    676.59621   -162.25742    1914.6794    8686.7849    1017782.6   -145.80702    -64.57922   -276.38603    100.58928    100.58928    100.58928 
  971000    687.35585    -52.10693    1921.5017    8645.9736    1017186.5   -53.778891   -65.964947   -36.576951    100.56963    100.56963    100.56963 
  972000    702.49918    111.73484    1801.9768    8717.7875    1016590.6    156.25186    169.81795    9.1347015    100.54999    100.54999    100.54999 
  973000    678.72664   -228.65322    1878.0999    8713.0063      1015995   -188.39887   -142.80929   -354.75149    100.53035    100.53035    100.53035 
  974000    666.70886    97.258291    1976.1611    8650.4618    1015399.5     206.2202     34.64899    50.905687    100.51071    100.51071    100.51071 
  975000     701.1919   -76.437281    1836.8133    8683.3189    1014804.3    55.460294   -130.23828   -154.53386    100.49106    100.49106    100.49106 
  976000    691.22479   -105.71887    1865.0965     8683.998    1014209.4   -86.626144   -161.63278   -68.897684    100.47142    100.47142    100.47142 
  977000    707.00858    20.271904    1844.5611    8654.8732    1013614.6   -85.542373    20.733687     125.6244    100.45178    100.45178    100.45178 
  978000    681.25797    48.638017    1908.4071    8668.4996    1013020.2     129.8855   -84.958215    100.98677    100.43214    100.43214    100.43214 
  979000    682.72059    20.125024    1892.6686    8678.1693    1012425.9    36.646005    138.92423   -115.19516    100.41249    100.41249    100.41249 
  980000    684.77674    47.639715    1909.3115    8654.3022    1011831.9   -8.7615341    182.39504    -30.71436    100.39285    100.39285    100.39285 
  981000    664.85025   -28.762971     1934.668     8688.972    1011238.1    1.9409303   -46.688358   -41.541485    100.37321    100.37321    100.37321 
  982000    688.02943   -257.90077    1868.8035    8682.7273    1010644.5   -335.22632   -179.41261   -259.06338    100.35357    100.35357    100.35357 
  983000    662.83364    34.467328    1934.3154    8692.7684    1010051.2    160.88969   -4.2797789   -53.207927    100.33392    100.33392    100.33392 
  984000    692.69623   -53.235441    1869.6598    8665.0891    1009458.1    -17.60541   -133.30471   -8.7962082    100.31428    100.31428    100.31428 
  985000    703.78198   -47.083145    1824.4449    8675.1928    1008865.2    -102.1721   -76.522951    37.445613    100.29464    100.29464    100.29464 
  986000    674.09932   -46.327552    1893.5331    8695.4932    1008272.6   -86.109241   -38.142697   -14.730719      100.275      100.275      100.275 
  987000    681.17386      121.108    1857.8742    8708.1563    1007680.2    203.58095   -15.085034    174.82809    100.25535    100.25535    100.25535 
  988000    689.93184   -23.876694    1932.7443    8605.1897      1007088    6.8702696    102.50405    -181.0044    100.23571    100.23571    100.23571 
  989000    699.04261   -26.504075    1906.4578    8602.4657      1006496    144.62156    13.441143   -237.57493    100.21607    100.21607    100.21607 
  990000    678.01388    11.694356    1914.2247    8657.7574    1005904.3   -121.26531    31.728622    124.61975    100.19643    100.19643    100.19643 
  991000    677.38423   -68.686983    1923.4212    8649.3635    1005312.9   -30.176254   -45.974299    -129.9104    100.17678    100.17678    100.17678 
  992000    682.33948   -80.698901    1853.6624    8702.5336    1004721.6   -117.82722   -154.54106    30.271581    100.15714    100.15714    100.15714 
  993000    682.29379      11.4152    1864.8889    8690.2694    1004130.6   -19.395115    110.66596   -57.025247     100.1375     100.1375     100.1375 
  994000    717.92009   -19.055766    1758.7948    8686.4328    1003539.8    45.533273   -24.568779   -78.131793    100.11785    100.11785    100.11785 
  995000    690.01854   -111.07662    1809.7744    8719.3857    1002949.3   -12.513675   -137.49539    -183.2208    100.09821    100.09821    100.09821 
  996000    708.70212   -52.982191    1829.6176    8641.3891      1002359   -156.58346    8.8269128   -11.190026    100.07857    100.07857    100.07857 
  997000     686.4542   -116.36911    1789.1716    8748.3617    1001768.9      -211.05    35.210209   -173.26755    100.05893    100.05893    100.05893 
  998000    675.51929   -109.46342    1818.3966    8751.1401      1001179   -154.10252   -141.58594   -32.701784    100.03929    100.03929    100.03929 
  999000    690.90751   -30.480424    1825.8469    8695.1556    1000589.4    -93.02507   -67.013238    68.597038    100.01964    100.01964    100.01964 
 1000000    689.10334   -110.07002    1791.2458    8734.2489      1000000    116.05492   -166.54666   -279.71831          100          100          100 
Loop time of 6026.24 on 1 procs for 1000000 steps with 1025 atoms

Pair  time (%) = 214.443 (3.55848)
Bond  time (%) = 36.9932 (0.613868)
Neigh time (%) = 5619.68 (93.2535)
Comm  time (%) = 74.8456 (1.24199)
Outpt time (%) = 9.69264 (0.160841)
Other time (%) = 70.5853 (1.1713)

Nlocal:    1025 ave 1025 max 1025 min
Histogram: 1 0 0 0 0 0 0 0 0 0
Nghost:    6486 ave 6486 max 6486 min
Histogram: 1 0 0 0 0 0 0 0 0 0
Neighs:    4674 ave 4674 max 4674 min
Histogram: 1 0 0 0 0 0 0 0 0 0

Total # of neighbors = 4674
Ave neighs/atom = 4.56
Ave special neighs/atom = 5.80683
Neighbor list builds = 100000
Dangerous builds = 100000
unfix 1st
unfix 2nd
unfix 3rd
unfix 4th
write_restart 	restart.${simname}.dat
write_restart 	restart.deformation.dat

print "[>> All done! <<]"
[>> All done! <<]

