#read_data	${fname}.dat
read_restart	restart.${fname}.dat
read_restart	restart.minimization.dat
  orthogonal box = (0 0 0) to (119.642 119.642 119.642)
  1 by 1 by 1 MPI processor grid
  1025 atoms
  1008 bonds
  2 = max # of 1-2 neighbors
  2 = max # of 1-3 neighbors
  4 = max # of 1-4 neighbors
  6 = max # of special neighbors

# Dreiding potential information
neighbor	0.4 bin
neigh_modify	every 10 one 10000
#bond_style      class2
#bond_coeff	1 4.7 5.76525  0.0 2.882625 #kcal/mol
#bond_coeff	1 4.7 0.25ev 0.0 0.125ev

#special_bonds fene angle no dihedral no
special_bonds lj 0.0 1.0 1.0

#####equi1_pair.py data
include pairfile_no_soft
bond_style      class2
bond_coeff	1 4.700000 5.765250 0.000000 2.882625 #kcal/mol

pair_style lj/expand 25
pair_modify shift yes
pair_coeff * * 1.129989 4.700000 0.000000 9.870000

pair_coeff 1 1 1.129989 4.700000 0.000000 5.275572
pair_coeff 2 2 1.129989 4.700000 0.000000 5.275572
pair_coeff 3 3 1.129989 4.700000 0.000000 5.275572
pair_coeff 4 4 1.129989 4.700000 0.000000 5.275572
pair_coeff 5 5 1.129989 4.700000 0.000000 5.275572
pair_coeff 6 6 1.129989 4.700000 0.000000 5.275572
pair_coeff 7 7 1.129989 4.700000 0.000000 5.275572
pair_coeff 8 8 1.129989 4.700000 0.000000 5.275572
pair_coeff 9 9 1.129989 4.700000 0.000000 5.275572
pair_coeff 10 10 1.129989 4.700000 0.000000 5.275572
pair_coeff 11 11 1.129989 4.700000 0.000000 5.275572
pair_coeff 12 12 1.129989 4.700000 0.000000 5.275572
pair_coeff 13 13 1.129989 4.700000 0.000000 5.275572
pair_coeff 14 14 1.129989 4.700000 0.000000 5.275572
pair_coeff 15 15 1.129989 4.700000 0.000000 5.275572
pair_coeff 16 16 1.129989 4.700000 0.000000 5.275572

pair_coeff * 17 4.519956 4.700000 37.600000 9.870000
pair_coeff 17 17 0.282497 4.700000 37.600000 5.275572
####equi1_pair.py complete

#####################################################
# Equilibration Stage 1 (NPT dynamics at 1000 K)
#fix		1st all nve temp ${temperature} ${temperature} ${damping} iso 0 0 100 drag 2  # drag added to damp osillation by thermostat
group np type 17
1 atoms in group np
fix         1st all nvt temp ${temperature} ${temperature} ${damping} # higher the visocity, lower damping
fix         1st all nvt temp 1000 ${temperature} ${damping} 
fix         1st all nvt temp 1000 1000 ${damping} 
fix         1st all nvt temp 1000 1000 20 
fix   		2nd all momentum 1 linear 1 1 1 angular
fix         3rd np move linear 0 0 0 units box
thermo_style	custom step temp press epair ebond vol pxx pyy pzz lx ly lz
thermo          1000
timestep	2
dump		1 all dcd  1000 ${simname}.dcd
dump		1 all dcd  1000 nvthightemp.dcd
reset_timestep  0
run		${runtimes}
run		1000000
WARNING: One or more atoms are time integrated more than once (modify.cpp:220)
WARNING: Inconsistent image flags (domain.cpp:594)
Memory usage per processor = 4.53139 Mbytes
Step Temp Press E_pair E_bond Volume Pxx Pyy Pzz Lx Ly Lz 
       0    598.59415   -99.991131     4032.405    8606.4865      1712602   -249.04315    -49.99628  -0.93396221     119.6425     119.6425     119.6425 
    1000    606.18957    48.156569    3930.1487    8681.3792      1712602   -116.35365    -10.07062    270.89397     119.6425     119.6425     119.6425 
    2000    624.14045    116.75447    4100.9214    8454.2447      1712602    76.560603    290.28143   -16.578625     119.6425     119.6425     119.6425 
    3000    643.95776    197.36666    3808.7493     8684.534      1712602    201.36659    173.00812    217.72527     119.6425     119.6425     119.6425 
    4000    650.42618    291.83823    3802.5163    8669.9491      1712602    441.81605    154.76997    278.92866     119.6425     119.6425     119.6425 
    5000    684.40026   -64.085884    3644.6865    8722.8458      1712602    32.286231    91.693977   -316.23786     119.6425     119.6425     119.6425 
    6000     690.5718   -194.32769    3782.5288    8565.1701      1712602   -247.85281    4.7924013   -339.92266     119.6425     119.6425     119.6425 
    7000    720.09065   -100.24225     3444.389    8812.1615      1712602    -202.9374   -117.84438    20.055019     119.6425     119.6425     119.6425 
    8000    736.11583   -118.81147    3544.3281    8662.2991      1712602   -51.186939   -47.966082   -257.28138     119.6425     119.6425     119.6425 
    9000    766.71421    84.783435     3322.896    8789.2626      1712602    202.84263   -39.720323    91.227995     119.6425     119.6425     119.6425 
   10000    752.50844    209.15774    3579.7027    8574.7783      1712602   -25.656608     123.1448    529.98502     119.6425     119.6425     119.6425 
   11000    739.46016    25.052137    3338.6921    8854.7398      1712602    36.043268   -31.739732    70.852875     119.6425     119.6425     119.6425 
   12000    768.58833   -180.02117    3350.2067    8753.5727      1712602   -197.87996   -55.574183   -286.60937     119.6425     119.6425     119.6425 
   13000    769.75724   -127.82567    3291.3574    8808.1237      1712602   -66.241239   -102.39643   -214.83933     119.6425     119.6425     119.6425 
   14000    778.63579   -64.926749    3372.6931    8698.9809      1712602    16.455019   -39.534413   -171.70085     119.6425     119.6425     119.6425 
   15000    800.79217    48.036013    3181.4661    8821.8773      1712602   -8.5037833    137.91005    14.701772     119.6425     119.6425     119.6425 
   16000    779.10332    250.56994    3260.0124    8808.8852      1712602    197.85232    280.53081     273.3267     119.6425     119.6425     119.6425 
   17000    777.39484    60.909155    3283.5226    8789.9475      1712602   -39.471678    120.60557    101.59357     119.6425     119.6425     119.6425 
   18000    809.01918     19.71842    3219.5917    8756.6861      1712602    15.731655   -67.672044    111.09565     119.6425     119.6425     119.6425 
   19000    811.89431   -125.36147    3131.5193    8835.1812      1712602   -122.62325   -219.61993   -33.841229     119.6425     119.6425     119.6425 
   20000    809.28239   -335.09332    3133.3424    8840.6825      1712602   -172.48373    -270.7116   -562.08463     119.6425     119.6425     119.6425 
   21000    824.36979    46.078268      3132.89    8794.3847      1712602    74.096053    123.31495   -59.176202     119.6425     119.6425     119.6425 
   22000    795.54122    21.823927    3206.3653    8808.2605      1712602   -113.03412    219.16407   -40.658167     119.6425     119.6425     119.6425 
   23000    782.84724   -30.050257    3265.0021    8787.5117      1712602   -100.06197    159.66766   -149.75646     119.6425     119.6425     119.6425 
   24000    827.76288    75.038916    3096.3162    8818.2498      1712602    43.723035    38.542205    142.85151     119.6425     119.6425     119.6425 
   25000     836.7152    54.788194    3097.5648    8788.8395      1712602    70.130459   -82.882984    177.11711     119.6425     119.6425     119.6425 
   26000     807.0299   -86.598911    3162.7417    8813.4057      1712602   -90.306474    -346.5615    177.07124     119.6425     119.6425     119.6425 
   27000    830.96489   -26.285148    3159.8436    8742.4474      1712602    24.464679   -166.99548    63.675353     119.6425     119.6425     119.6425 
   28000    836.30347    28.311822    3064.1175    8820.9164      1712602    78.602778   -49.490057    55.822745     119.6425     119.6425     119.6425 
   29000    800.03007    29.029027    3172.2254    8822.8479      1712602   -85.026845    121.01849    51.095438     119.6425     119.6425     119.6425 
   30000    801.44332      7.20385    3105.8115    8884.1766      1712602   -116.70496    190.08844   -51.771929     119.6425     119.6425     119.6425 
   31000    836.12851    -53.78535    3078.5376    8804.8437      1712602   -152.19442    2.9009837   -12.062609     119.6425     119.6425     119.6425 
   32000    852.98804   -52.828091    2964.9353    8866.3647      1712602    8.1927888   -54.106481   -112.57058     119.6425     119.6425     119.6425 
   33000    829.93611    -12.50082     3127.152    8773.9834      1712602    1.8361054   -81.509572    42.171007     119.6425     119.6425     119.6425 
   34000    854.94501    11.483126    3025.8713    8798.2323      1712602    29.234732   -90.122563     95.33721     119.6425     119.6425     119.6425 
   35000    822.29329    55.260724    3078.7904     8844.343      1712602    7.4819073    146.79973    11.500538     119.6425     119.6425     119.6425 
   36000    839.29108   -31.126326    3025.1294    8845.3744      1712602    58.929618    46.025245   -198.33384     119.6425     119.6425     119.6425 
   37000    846.29337   -17.529425    2967.0455    8881.5314      1712602   -19.840553    29.640631   -62.388354     119.6425     119.6425     119.6425 
   38000    829.80729    15.440873    3113.7299    8784.4155      1712602   -21.002341    42.079417    25.245543     119.6425     119.6425     119.6425 
   39000    854.84823   -121.65378    2970.9655    8850.0654      1712602   -90.116371   -95.844124   -179.00085     119.6425     119.6425     119.6425 
   40000    825.70353    167.02173    3062.9458    8846.3694      1712602    239.86589    160.46546    100.73384     119.6425     119.6425     119.6425 
   41000    844.61697    76.010591    3037.0047    8813.9798      1712602    56.454384    55.227332    116.35006     119.6425     119.6425     119.6425 
   42000     823.2862    87.786022    3048.0712    8867.3249      1712602    154.84002    26.326095    82.191948     119.6425     119.6425     119.6425 
   43000    864.26505   -99.747048    2902.0649    8887.5875      1712602   -117.42752   -48.242161   -133.57147     119.6425     119.6425     119.6425 
   44000    833.38323    34.928893    3093.1848    8790.1617      1712602    13.244258   -12.007064    103.54949     119.6425     119.6425     119.6425 
   45000     838.3618    22.769549      3001.39    8866.1051      1712602    75.684019   -109.68135    102.30597     119.6425     119.6425     119.6425 
   46000    831.78972    -53.92958    3119.1289    8767.7961      1712602    4.5941653   -10.434712   -155.94819     119.6425     119.6425     119.6425 
   47000    834.68773   -66.179997    3052.2241    8825.2311      1712602   -60.426723   -35.653707   -102.45956     119.6425     119.6425     119.6425 
   48000    856.51903    85.280098    2984.7925    8825.3138      1712602    123.94233    112.15803     19.73994     119.6425     119.6425     119.6425 
   49000    858.68941    150.57424    2991.1658    8811.7693      1712602    209.12349    89.462679    153.13656     119.6425     119.6425     119.6425 
   50000    871.98472   -20.375437    2833.3562    8928.3697      1712602   -25.055449   -11.730688   -24.340175     119.6425     119.6425     119.6425 
   51000    841.57273     -30.8259    3097.4472    8756.3877      1712602   -56.118799   -1.0245367   -35.334364     119.6425     119.6425     119.6425 
   52000    850.55357   -27.680897    2866.2613    8959.4603      1712602   -85.829208   -20.530314    23.316831     119.6425     119.6425     119.6425 
   53000    843.18757    22.048372    3051.7383    8795.6419      1712602   -36.011549    80.447255     21.70941     119.6425     119.6425     119.6425 
   54000    841.30244   -10.761079    2933.2651    8919.1825      1712602  -0.58793218   -20.770435   -10.924871     119.6425     119.6425     119.6425 
   55000     856.0174   -31.662368    2961.3747     8845.405      1712602    33.288304   -36.968754   -91.306654     119.6425     119.6425     119.6425 
   56000    846.72056   -22.655672    3060.4327    8774.0839      1712602   -106.67204   -143.01912    181.72414     119.6425     119.6425     119.6425 
   57000    847.46663   -23.212286    2868.4433    8963.0104      1712602   -58.704169        1.149   -12.081689     119.6425     119.6425     119.6425 
   58000    856.15997    70.135816    3057.0671     8747.118      1712602    149.89524    -38.14077    98.652973     119.6425     119.6425     119.6425 
   59000    874.75232   -52.351212     2854.032    8892.8097      1712602   -173.08582    115.56965   -99.537476     119.6425     119.6425     119.6425 
   60000    871.67375   -42.037838    3045.8045    8709.6908      1712602   -60.036476    -36.51476   -29.562276     119.6425     119.6425     119.6425 
   61000    862.92252   -1.3573056    2916.7028    8864.8557      1712602   -92.778211   -25.048114    113.75441     119.6425     119.6425     119.6425 
   62000    860.27686    70.545557    2931.2508     8857.636      1712602    155.08312   -1.7123883     58.26594     119.6425     119.6425     119.6425 
   63000    881.88368   -26.706813     2975.401    8746.8284      1712602   -27.013357   -107.20353    54.096444     119.6425     119.6425     119.6425 
   64000     860.7295   -52.521585    2892.4701    8893.7228      1712602   -78.283711   -6.4243974   -72.856645     119.6425     119.6425     119.6425 
   65000     860.0976    34.719429    2987.4099    8800.1988      1712602    140.51693   -20.776502   -15.582145     119.6425     119.6425     119.6425 
   66000    874.25901    97.173089    2874.3007    8869.5002      1712602    10.213998    181.45589    99.849376     119.6425     119.6425     119.6425 
   67000    890.05295    53.538985    2931.3448     8763.672      1712602    41.326213    62.669723     56.62102     119.6425     119.6425     119.6425 
   68000    867.03432    7.1275828    2984.1741    8780.5221      1712602    69.477474   -41.605075     -6.48965     119.6425     119.6425     119.6425 
   69000    841.28677   -14.086969    3026.2956    8816.4997      1712602   -13.914647   -42.183003    13.836743     119.6425     119.6425     119.6425 
   70000    847.83473   -68.637433    3027.8455    8794.2919      1712602   -18.106395   -22.732336   -165.07357     119.6425     119.6425     119.6425 
   71000    856.54481   -99.606198    2888.3717    8906.6806      1712602   -78.057738   -7.8517821   -212.90907     119.6425     119.6425     119.6425 
   72000    870.61542     2.930258     3011.165    8740.4641      1712602    46.894927   -19.269137   -18.835015     119.6425     119.6425     119.6425 
   73000    873.00966   -230.20297    2889.5469    8854.1016      1712602   -223.89317   -180.19046   -286.52528     119.6425     119.6425     119.6425 
   74000    851.99592    60.584928    3092.5503    8714.6946      1712602    42.410419    115.95559    23.388776     119.6425     119.6425     119.6425 
   75000    831.91433    128.32841     3014.743    8853.4366      1712602    57.060368    93.317074     234.6078     119.6425     119.6425     119.6425 
   76000    830.91711   -42.175219    3016.6058    8853.9286      1712602    39.055156   -85.441295   -80.139518     119.6425     119.6425     119.6425 
   77000    835.89202   -78.916581    2996.7942    8857.8733      1712602   -82.801522    38.153874   -192.10209     119.6425     119.6425     119.6425 
   78000    852.93329   -3.2814055    2966.3839    8835.5715      1712602    104.43964   -17.084036   -97.199822     119.6425     119.6425     119.6425 
   79000    856.92422   -1.2424827    2993.8637    8795.1681      1712602    1.1904151    32.589554   -37.507417     119.6425     119.6425     119.6425 
   80000    828.59595   -49.226207    2937.6946    8936.9522      1712602   -70.164161   -114.97493    37.460475     119.6425     119.6425     119.6425 
   81000    817.21532   -75.502913    3038.7752     8869.687      1712602   -8.5541185   -136.73155   -81.223071     119.6425     119.6425     119.6425 
   82000    819.50328    96.678444     3016.935    8883.6807      1712602    152.69824    23.125712    114.21138     119.6425     119.6425     119.6425 
   83000    830.96013   -26.398558    3036.4555     8828.271      1712602   -55.996503    14.155707   -37.354879     119.6425     119.6425     119.6425 
   84000    830.83264     55.21632    3095.7003    8768.7381      1712602    55.238491    51.942255    58.468214     119.6425     119.6425     119.6425 
   85000    819.02351    27.851376    3057.3926    8842.2505      1712602    209.82822   0.78336395   -127.05746     119.6425     119.6425     119.6425 
   86000    812.43386   -70.640172    3063.6459     8855.492      1712602   -160.74965    45.673811   -96.844675     119.6425     119.6425     119.6425 
   87000    830.92327    70.982248     2987.836     8874.131      1712602    10.057464     95.26948     107.6198     119.6425     119.6425     119.6425 
   88000    868.17208    1.9417197    2929.4973    8818.0282      1712602    96.671927   -50.243435   -40.603332     119.6425     119.6425     119.6425 
   89000    857.56079    14.442577    2937.9137    8841.3173      1712602    18.498054   -48.685229    73.514907     119.6425     119.6425     119.6425 
   90000    831.26952   -134.20822     2957.978    8900.6713      1712602   -139.86687   -79.291174   -183.46662     119.6425     119.6425     119.6425 
   91000     847.3846    -6.945382    2860.9288    8947.9761      1712602   -26.012079    33.540548   -28.364615     119.6425     119.6425     119.6425 
   92000    825.58538   -55.669804    3056.2149    8818.5024      1712602   -81.704396    35.794299   -121.09932     119.6425     119.6425     119.6425 
   93000    821.99098    42.516462    2970.0492    8914.8915      1712602   -22.408712    105.23171    44.726386     119.6425     119.6425     119.6425 
   94000     854.2419    52.045928    2960.0813     8825.926      1712602     77.81557    6.8774029    71.444811     119.6425     119.6425     119.6425 
   95000    859.99687   -83.740187    2890.1609    8877.7647      1712602   -86.648227   -129.35978   -35.212548     119.6425     119.6425     119.6425 
   96000    840.68496   -8.7270904    2989.5778    8836.4866      1712602    74.093948     -76.5044   -23.770818     119.6425     119.6425     119.6425 
   97000    834.99267   -70.279192    2994.4964    8848.2858      1712602    -41.37347   -29.693225   -139.77088     119.6425     119.6425     119.6425 
   98000    853.13766   -13.577333    2949.8474    8836.8607      1712602   -54.362232    3.9507233    9.6795101     119.6425     119.6425     119.6425 
   99000    876.08202   -128.29459    2815.4149    8900.4445      1712602   -34.619504   -73.836395   -276.42787     119.6425     119.6425     119.6425 
  100000    839.75067    51.839069    3102.1811    8723.6933      1712602   -2.4167067    95.359932    62.573982     119.6425     119.6425     119.6425 
  101000    834.30309    60.991691    2941.7957    8900.1225      1712602    69.359865   -47.982424    161.59763     119.6425     119.6425     119.6425 
  102000    860.95377   -37.270283     2975.221    8784.6682      1712602     60.97708   -16.006539   -156.78139     119.6425     119.6425     119.6425 
  103000    856.22607    -22.30336    2968.9343    8804.5902      1712602   -12.696092   -75.531262    21.317272     119.6425     119.6425     119.6425 
  104000    858.66089    78.366114    2975.5914    8789.6473      1712602    25.307974    39.437307    170.35306     119.6425     119.6425     119.6425 
  105000    847.77209   -44.152258    2941.1509    8856.7461      1712602   -17.844424    61.019473   -175.63182     119.6425     119.6425     119.6425 
  106000    823.98837   -20.151352    3031.3757    8838.5364      1712602   -114.44244    62.609537   -8.6211559     119.6425     119.6425     119.6425 
  107000    844.68775   -27.423562    2961.1036    8845.1776      1712602    9.0132031   -86.483488   -4.8004022     119.6425     119.6425     119.6425 
  108000    861.48824   -105.15971    2870.0938    8884.3875      1712602   -119.36865   -71.615427   -124.49505     119.6425     119.6425     119.6425 
  109000    881.99715    1.7170543    2991.1234    8700.2556      1712602   -78.432623    29.351584    54.232202     119.6425     119.6425     119.6425 
  110000    817.02902   -121.11654    2966.8308    8922.3143      1712602   -79.168687   -212.85294   -71.327992     119.6425     119.6425     119.6425 
  111000    838.16935   -8.4716495    3013.6986    8810.3752      1712602   -61.249811    29.240177    6.5946861     119.6425     119.6425     119.6425 
  112000    831.03444    21.065627    2954.8032     8890.433      1712602   -79.701176    93.050629    49.847427     119.6425     119.6425     119.6425 
  113000    831.03972   -88.180047    3009.5952     8835.028      1712602   -132.13429   -75.010756   -57.395101     119.6425     119.6425     119.6425 
  114000    854.99401    83.450207    2977.6778    8793.2391      1712602    79.034081     104.1595    67.157035     119.6425     119.6425     119.6425 
  115000     863.3171    105.37411    2973.6469    8771.3704      1712602    201.62645    73.156575    41.339306     119.6425     119.6425     119.6425 
  116000    841.30482   -141.45387    2932.2254    8879.2514      1712602    -109.2664   -213.90684   -101.18837     119.6425     119.6425     119.6425 
  117000    829.09501   -69.787338    3017.5148    8830.7385      1712602   -60.838251   -79.571057   -68.952705     119.6425     119.6425     119.6425 
  118000    829.25718   -62.873536    2980.0062    8867.1971      1712602   -105.81937   -52.454643   -30.346598     119.6425     119.6425     119.6425 
  119000    846.58327   -9.4230029    2936.3924    8857.3052      1712602    26.495495   -38.748996   -16.015508     119.6425     119.6425     119.6425 
  120000    864.31026    111.16737    2950.0997    8788.8577      1712602    35.948076    211.01663    86.537401     119.6425     119.6425     119.6425 
  121000    844.40741    106.43933    2907.8467    8891.4355      1712602    183.23698     91.85574    44.225282     119.6425     119.6425     119.6425 
  122000     884.0138    47.577716    2829.4189    8848.4672      1712602     78.96385    59.652845     4.116452     119.6425     119.6425     119.6425 
  123000    829.43965    129.48499    2970.2327    8873.6726      1712602    89.861502      76.2276    222.36587     119.6425     119.6425     119.6425 
  124000    824.96688    -129.7876    2977.1714    8879.8629      1712602   -179.20242   -108.10199    -102.0584     119.6425     119.6425     119.6425 
  125000     862.9115   -93.897162    3002.2358    8738.4512      1712602   -172.27518   -62.857319   -46.558989     119.6425     119.6425     119.6425 
  126000    861.73804    88.874948    2997.7879    8746.0198      1712602    51.338914    81.735338    133.55059     119.6425     119.6425     119.6425 
  127000    840.75993    104.89965    2948.0925    8859.2165      1712602    129.76769    121.38399    63.547262     119.6425     119.6425     119.6425 
  128000    850.41015    75.776587    2919.4402    8857.8038      1712602     109.3667   -12.311278    130.27434     119.6425     119.6425     119.6425 
  129000    840.84061    15.419453    2940.7221    8865.1187      1712602    95.854442   -51.331294    1.7352108     119.6425     119.6425     119.6425 
  130000    867.49122    18.127977    2965.3637     8758.548      1712602    80.440492    -21.52299   -4.5335717     119.6425     119.6425     119.6425 
  131000    859.36414   -37.355464    2934.1383    8813.9715      1712602   -25.558032   -34.284242   -52.224118     119.6425     119.6425     119.6425 
  132000    825.59235    44.230454    3082.3673    8768.3168      1712602    74.069187    7.0624816    51.559694     119.6425     119.6425     119.6425 
  133000     838.0806    100.95968    2923.0956    8888.8872      1712602    29.779316    166.61788    106.48186     119.6425     119.6425     119.6425 
  134000    838.21177   -45.280248    3035.2882    8775.7294      1712602   -138.67897    68.491535   -65.653309     119.6425     119.6425     119.6425 
  135000    846.00734   -105.83318    2882.0726    8904.5805      1712602   -202.07795   -45.575319   -69.846274     119.6425     119.6425     119.6425 
  136000    841.29119    23.278497    3019.6693    8780.9187      1712602   -8.4173871    46.461809    31.791071     119.6425     119.6425     119.6425 
  137000    814.87849   -66.223014    2961.1112    8919.6556      1712602   -89.133961   -72.976922    -36.55816     119.6425     119.6425     119.6425 
  138000    847.37729    33.556244    3009.9312    8771.1901      1712602    38.100215    14.455274    48.113244     119.6425     119.6425     119.6425 
  139000    838.61098    -49.39173    2948.4502    8858.8628      1712602   -84.170538   -108.47014    44.465489     119.6425     119.6425     119.6425 
  140000    839.38699   -45.914858     3005.902    8798.4915      1712602   -48.344514   -29.868482   -59.531577     119.6425     119.6425     119.6425 
  141000    833.76276    -81.77334    2938.3008    8882.6692      1712602    3.7842228   -97.901716   -151.20253     119.6425     119.6425     119.6425 
  142000    823.22426     26.81411    3078.5712    8774.0199      1712602    34.613382    49.038592   -3.2096435     119.6425     119.6425     119.6425 
  143000    828.69177   -71.185974      3017.35    8818.0932      1712602   -22.708548   -152.41177   -38.437602     119.6425     119.6425     119.6425 
  144000    820.02305    69.288109     3053.146    8808.1873      1712602   -94.616287    110.69561      191.785     119.6425     119.6425     119.6425 
  145000    862.32034    2.2099414     2861.645    8870.1379      1712602    41.003205    16.515129   -50.888509     119.6425     119.6425     119.6425 
  146000    836.09297   -38.639886    2881.3373    8929.9431      1712602    -15.15062   -34.035944   -66.733094     119.6425     119.6425     119.6425 
  147000    831.33781   -154.46221     3035.582    8789.6827      1712602   -109.34199   -157.02272   -197.02193     119.6425     119.6425     119.6425 
  148000    835.65876    15.630804    2935.4539    8875.9978      1712602    50.233596   -17.137162    13.795977     119.6425     119.6425     119.6425 
  149000    839.46621    24.951404    3026.9609     8772.376      1712602    28.388621    26.804429     19.66116     119.6425     119.6425     119.6425 
  150000    842.08822    146.37731       2902.7    8888.0157      1712602    178.18469    146.02836    114.91889     119.6425     119.6425     119.6425 
  151000    843.71196    48.214758    2948.5997    8836.6421      1712602    55.596914    75.908837    13.138524     119.6425     119.6425     119.6425 
  152000    831.71198   -96.564907     2882.248    8938.9916      1712602   -72.902592   -46.171842   -170.62029     119.6425     119.6425     119.6425 
  153000    851.63012   -137.63382    2962.3808    8797.2283      1712602   -107.34595   -122.44412   -183.11139     119.6425     119.6425     119.6425 
  154000    821.06085    1.8292459     3013.505     8838.991      1712602      92.2449   -14.701273   -72.055889     119.6425     119.6425     119.6425 
  155000    823.70853    8.2252757    3019.9553    8823.9728      1712602   -40.507121    -19.85958    85.042528     119.6425     119.6425     119.6425 
  156000    836.46419    41.812929    2950.9593    8853.5134      1712602    48.019912    6.6102354     70.80864     119.6425     119.6425     119.6425 
  157000    827.91484   -101.81166     2989.556    8840.4871      1712602   -116.36061    -53.90246   -135.17192     119.6425     119.6425     119.6425 
  158000    852.14821    107.02346    2910.4135    8845.0394      1712602    74.469756     139.7107    106.88992     119.6425     119.6425     119.6425 
  159000    843.28178   -22.506844    2939.4001    8842.5646      1712602    -24.14665   -88.013036    44.639154     119.6425     119.6425     119.6425 
  160000    833.39794   -4.1248074    3064.3121    8747.2924      1712602   -62.006249     113.4711   -63.839277     119.6425     119.6425     119.6425 
  161000     846.4006    5.6991046    2928.1986    8843.2094      1712602   -22.713925   -24.019719    63.830958     119.6425     119.6425     119.6425 
  162000     829.4665   -29.470176    2984.8176     8837.865      1712602   -45.073343    5.1087621   -48.445946     119.6425     119.6425     119.6425 
  163000    847.76769   -6.6528418    2970.9062    8795.3364      1712602    -9.344029    1.1591108   -11.773607     119.6425     119.6425     119.6425 
  164000    832.31594   -74.610554    2979.5205    8833.3098      1712602   -96.848287   -67.110848   -59.872525     119.6425     119.6425     119.6425 
  165000    819.66074    126.39141    3003.5248    8847.4311      1712602    127.33319    48.528157    203.31289     119.6425     119.6425     119.6425 
  166000    850.67594   -23.927905    2965.4894    8790.2571      1712602    -98.80529   -37.645043     64.66662     119.6425     119.6425     119.6425 
  167000    848.67775   -61.634753    2926.7394    8834.5346      1712602   -97.025103   -46.865195   -41.013962     119.6425     119.6425     119.6425 
  168000    885.84823    99.915284    2793.0931    8854.0984      1712602    123.24458   -24.171615    200.67289     119.6425     119.6425     119.6425 
  169000    862.91257    27.452742    2902.6495    8813.9339      1712602   -7.6095731    17.621716    72.346082     119.6425     119.6425     119.6425 
  170000    825.24835    14.316046    2874.2478    8956.8834      1712602    123.93365   -70.053114   -10.932394     119.6425     119.6425     119.6425 
  171000    853.59177   -9.6221096    2890.1848    8853.8017      1712602   -28.496782    26.285382   -26.654929     119.6425     119.6425     119.6425 
  172000    857.14315   -49.217014     2906.051    8826.5847      1712602   -94.471961    54.960841   -108.13992     119.6425     119.6425     119.6425 
  173000    829.85568    13.015954    2971.8638    8843.4972      1712602   -50.279856    58.241184    31.086534     119.6425     119.6425     119.6425 
  174000    841.59543    63.878515    3014.8983    8763.9775      1712602    -25.02384    130.35925    86.300135     119.6425     119.6425     119.6425 
  175000    860.56962   -27.272836    2853.6689    8866.6201      1712602    26.232359   -92.117264   -15.933603     119.6425     119.6425     119.6425 
  176000     861.7341    90.028683    2903.2531    8813.0169      1712602    -1.188997    74.783253    196.49179     119.6425     119.6425     119.6425 
  177000    856.42871    13.918886    2893.8166    8838.0429      1712602    72.229648   -1.8107131   -28.662276     119.6425     119.6425     119.6425 
  178000    854.10832   -9.6535972    2878.6047    8859.5511      1712602    -80.79426    59.442956    -7.609487     119.6425     119.6425     119.6425 
  179000    874.65826    19.652788    2958.0118    8716.7991      1712602    39.916589    51.724747   -32.682972     119.6425     119.6425     119.6425 
  180000    856.16166   -62.911217    2906.1533    8824.5039      1712602   -2.7702096   -69.233395   -116.73005     119.6425     119.6425     119.6425 
  181000    882.46887    54.302784    2975.3157    8674.3681      1712602    108.04846    25.552904    29.306991     119.6425     119.6425     119.6425 
  182000    852.14821    5.5474012    2865.5963    8876.1232      1712602   -39.384721    25.239704     30.78722     119.6425     119.6425     119.6425 
  183000    854.63441     129.3916    3000.5936     8732.697      1712602    150.26012    161.13624    76.778421     119.6425     119.6425     119.6425 
  184000     845.4792   -81.810162    2786.0241    8974.6058      1712602    -89.66934    21.734572   -177.49572     119.6425     119.6425     119.6425 
  185000    849.81098   -35.064391    3015.6052    8731.2339      1712602    -59.46547   -43.986835   -1.7408682     119.6425     119.6425     119.6425 
  186000    834.37577   -34.788714    2849.9935    8943.3025      1712602   -16.442423    11.590802    -99.51452     119.6425     119.6425     119.6425 
  187000    854.22291     19.88348    3044.0656    8688.1032      1712602    80.380763   -50.212453    29.482129     119.6425     119.6425     119.6425 
  188000    828.59363    42.714661    2951.0878    8858.8542      1712602    132.85135     -7.71191     3.004548     119.6425     119.6425     119.6425 
  189000    834.34077    24.700571    2927.9994    8863.7279      1712602   -5.7719408     132.7404   -52.866744     119.6425     119.6425     119.6425 
  190000     857.3137   -51.333485    2915.5646    8805.4159      1712602   -135.15297    29.576514   -48.424002     119.6425     119.6425     119.6425 
  191000    869.37692   -55.136159    2763.8682    8919.8751      1712602    -56.87158   -2.1358158   -106.40108     119.6425     119.6425     119.6425 
  192000    846.89186   -35.634331    2936.8226    8815.0099      1712602    -36.90778   0.74222437   -70.737437     119.6425     119.6425     119.6425 
  193000    858.51941    53.780214    2878.4423    8837.1901      1712602    123.86121    50.441442   -12.962015     119.6425     119.6425     119.6425 
  194000    872.49116   -79.390777     2926.745    8745.6629      1712602   -75.775214   -75.246797   -87.150319     119.6425     119.6425     119.6425 
  195000    897.86252   -4.4028877    2820.6851    8773.8072      1712602    25.991866   -8.4845789    -30.71595     119.6425     119.6425     119.6425 
  196000    868.94765    79.520648    2973.7003    8708.4987      1712602    95.526472    74.881045    68.154428     119.6425     119.6425     119.6425 
  197000    840.32226     37.12404    2900.6131    8868.4918      1712602      5.33751    62.924318    43.110292     119.6425     119.6425     119.6425 
  198000    845.30327   -48.089774    2876.3129    8877.1848      1712602   -74.275623   -69.354354  -0.63934539     119.6425     119.6425     119.6425 
  199000    874.16566   -95.113665    2818.3941     8846.494      1712602   -91.206535   -90.712596   -103.42186     119.6425     119.6425     119.6425 
  200000    843.82584    103.84811    2859.7788    8897.2612      1712602    72.742756    155.88343    82.918137     119.6425     119.6425     119.6425 
  201000    852.77233    76.597423     2869.047     8860.133      1712602   -30.450397    221.23407    39.008594     119.6425     119.6425     119.6425 
  202000    865.94685    84.354153    2859.3853    8829.0308      1712602    78.491223    106.97345    67.597787     119.6425     119.6425     119.6425 
  203000    871.68279   -36.048516     2881.386    8789.0495      1712602   -86.141753   -2.5330884   -19.470708     119.6425     119.6425     119.6425 
  204000    865.34462   -19.237499    2892.4894    8796.5507      1712602   -50.571035   -6.1736103  -0.96785158     119.6425     119.6425     119.6425 
  205000    823.88341   -34.411488    2923.1307     8891.891      1712602    15.624007   -43.871975   -74.986496     119.6425     119.6425     119.6425 
  206000    832.89797   -95.741129    2935.4499    8851.4429      1712602   -58.869804   -118.50696   -109.84663     119.6425     119.6425     119.6425 
  207000    863.95944   -23.306123    2772.8498    8918.7141      1712602   -43.861384   -42.596028    16.539042     119.6425     119.6425     119.6425 
  208000    850.16938    39.027502      2821.78    8911.1617      1712602    129.26891    45.859766   -58.046174     119.6425     119.6425     119.6425 
  209000    856.11473   -73.267703    2894.7534    8819.5085      1712602   -143.78817   -35.354679    -40.66026     119.6425     119.6425     119.6425 
  210000    869.38498   -24.633095    2885.1672    8788.1262      1712602   -75.079384   -12.005238    13.185338     119.6425     119.6425     119.6425 
  211000    858.95992   -19.961905    2856.4295    8848.1493      1712602   -46.992757    7.2088795   -20.101837     119.6425     119.6425     119.6425 
  212000    854.97766    7.3360742    2877.9193    8838.2768      1712602    63.474727   -64.833382    23.366878     119.6425     119.6425     119.6425 
  213000    863.12341    24.233442     2819.608    8871.1724      1712602   -74.773033    107.67262    39.800738     119.6425     119.6425     119.6425 
  214000    852.28138   -11.794401       2844.9    8878.3736      1712602    21.805479    19.872099    -77.06078     119.6425     119.6425     119.6425 
  215000    876.54766    93.342337    2844.8635     8803.849      1712602    139.65071     80.13713    60.239174     119.6425     119.6425     119.6425 
  216000    853.86409   -30.938409    2830.5036    8886.9003      1712602   -47.612565   -24.285241    -20.91742     119.6425     119.6425     119.6425 
  217000    849.62642   -1.1600239    2920.2439    8809.5157      1712602    7.7273976    -38.36911    27.161641     119.6425     119.6425     119.6425 
  218000    854.59404   -26.774393    2813.5288    8900.4908      1712602     24.28723   -99.042366   -5.5680437     119.6425     119.6425     119.6425 
  219000    872.73451   -3.9003675    2934.2217    8723.7499      1712602   -12.234615   -29.684971    30.218484     119.6425     119.6425     119.6425 
  220000    863.05737    20.926605    2794.9997    8891.9821      1712602    67.115609    42.124059   -46.459852     119.6425     119.6425     119.6425 
  221000    877.38836   -25.734909    2818.4344    8824.1706      1712602   -125.66383    106.38398   -57.924878     119.6425     119.6425     119.6425 
  222000    854.82574   -40.874728    2863.1746    8847.8035      1712602    5.0548361   -32.614397   -95.064623     119.6425     119.6425     119.6425 
  223000    853.40681   -25.656955    2907.4189    8807.2886      1712602   -101.54835   -18.083456    42.660941     119.6425     119.6425     119.6425 
  224000    839.19392   -24.651387     2903.802    8853.6431      1712602   -22.908996   -42.529172   -8.5159938     119.6425     119.6425     119.6425 
  225000    863.59958   -33.002946    2828.0046    8854.1468      1712602    -22.98902    12.829427   -88.849244     119.6425     119.6425     119.6425 
  226000    847.27601    105.41125    2912.8857    8818.4737      1712602    135.75835    88.827275    91.648128     119.6425     119.6425     119.6425 
  227000    881.98984   -109.74303    2750.6407    8874.1702      1712602    -152.1833   -64.794159   -112.25164     119.6425     119.6425     119.6425 
  228000    838.79816    54.241097    2982.0184    8774.0868      1712602    122.87559   0.56713233    39.280566     119.6425     119.6425     119.6425 
  229000     849.3074    12.341937    2727.1306    8996.2391      1712602   -35.370256    53.922728    18.473339     119.6425     119.6425     119.6425 
  230000    883.54408    192.56175    2895.4659     8722.743      1712602     298.0689    71.021362    208.59499     119.6425     119.6425     119.6425 
  231000    863.88663    -102.7207     2848.677    8828.8311      1712602   -235.67313   -12.743806   -59.745148     119.6425     119.6425     119.6425 
  232000    850.63965   -5.6947702    2819.5534    8897.8027      1712602    106.11698   -83.890749   -39.310541     119.6425     119.6425     119.6425 
  233000    857.60734   -18.355659    2905.7944    8789.6618      1712602   -13.872706    35.070776   -76.265045     119.6425     119.6425     119.6425 
  234000    857.10546    32.668899    2777.4825    8918.8369      1712602   -4.0277893     61.35515    40.679336     119.6425     119.6425     119.6425 
  235000    875.85102    22.301051    2839.0891    8799.3891      1712602    23.441904    61.235537   -17.774288     119.6425     119.6425     119.6425 
  236000    877.66363    14.899288    2683.4679    8948.8973      1712602    75.608323    32.644604   -63.555063     119.6425     119.6425     119.6425 
  237000    887.78759     138.6076    2753.5475    8847.2034      1712602     159.5516    83.004639    173.26655     119.6425     119.6425     119.6425 
  238000    881.09174   -12.510491    2734.7714    8885.5767      1712602   -157.86808    20.608879    99.727725     119.6425     119.6425     119.6425 
  239000    896.76327   -163.72655    2678.7547    8893.1717      1712602    -159.9644   -137.34237    -193.8729     119.6425     119.6425     119.6425 
  240000    877.89689    16.233699     2794.898    8833.9188      1712602     42.34871    77.271144   -70.918758     119.6425     119.6425     119.6425 
  241000    866.20293   -20.740597    2725.8977    8938.1242      1712602   -23.125805    12.273648   -51.369634     119.6425     119.6425     119.6425 
  242000    896.65848    24.923807    2839.7413    8730.7543      1712602    29.073734    171.38829    -125.6906     119.6425     119.6425     119.6425 
  243000    859.82726   -47.680542    2835.0676    8847.2162      1712602   -54.698925    14.731862   -103.07456     119.6425     119.6425     119.6425 
  244000    862.61725    31.572231    2849.1861    8823.9435      1712602   -89.233114    43.160509     140.7893     119.6425     119.6425     119.6425 
  245000    871.41725    73.887807    2790.6248    8854.7216      1712602    35.409156    127.40924    58.845025     119.6425     119.6425     119.6425 
  246000     898.0998   -85.775097    2757.6692    8805.4039      1712602   -59.892119   -95.272629   -102.16054     119.6425     119.6425     119.6425 
  247000    879.26745   -29.517442     2782.006    8837.8696      1712602   -18.120016   -5.6973497   -64.734962     119.6425     119.6425     119.6425 
  248000    915.61243   -89.035615    2737.7055    8770.5294      1712602   -42.393114   -68.266215   -156.44752     119.6425     119.6425     119.6425 
  249000    903.58143   -54.078487    2682.5819    8861.7467      1712602   -22.398697     -161.817    21.980232     119.6425     119.6425     119.6425 
  250000    885.73048   -153.41715    2689.7527    8908.4421      1712602   -175.29048   -155.28884   -129.67213     119.6425     119.6425     119.6425 
  251000    876.54433    7.9712486    2754.6544    8871.0712      1712602    74.985509   -21.230478   -29.841285     119.6425     119.6425     119.6425 
  252000    872.10198   -22.765041    2726.5013    8912.2103      1712602   -20.837596    53.516842   -100.97437     119.6425     119.6425     119.6425 
  253000    878.18904   -35.803208     2817.409    8802.1794      1712602   -64.245344   -15.580116   -27.584162     119.6425     119.6425     119.6425 
  254000    862.81873   -22.867862    2722.1642    8943.7909      1712602   -28.396766   -13.165218   -27.041603     119.6425     119.6425     119.6425 
  255000    830.08573   -11.804261    2882.1106     8883.107      1712602   -59.113138    101.93283   -78.232476     119.6425     119.6425     119.6425 
  256000    883.30365   -46.986178    2768.5133    8833.7212      1712602   -121.61401    2.8373671   -22.181892     119.6425     119.6425     119.6425 
  257000    888.30765    1.2025909    2679.1244      8907.28      1712602   -5.2583119   -51.291344    60.157429     119.6425     119.6425     119.6425 
  258000    862.65861     30.82543     2818.022    8846.1595      1712602    80.164482    34.111734   -21.799925     119.6425     119.6425     119.6425 
  259000     874.9425    60.132668    2735.8898    8890.2179      1712602    111.95327    24.461592    43.983146     119.6425     119.6425     119.6425 
  260000    881.69182   -36.079789    2780.1981     8824.723      1712602    -118.2457    58.998098    -48.99176     119.6425     119.6425     119.6425 
  261000    891.51072    140.23901     2764.086    8810.2728      1712602    212.85723      37.8238    170.03599     119.6425     119.6425     119.6425 
  262000    893.17943    -45.06646    2714.8287    8853.9104      1712602   -41.555859   -121.32057    27.677046     119.6425     119.6425     119.6425 
  263000    863.70639    15.921356    2806.4626    8851.5784      1712602    152.62732   -7.8377684   -97.025489     119.6425     119.6425     119.6425 
  264000    867.98449   -51.660361    2686.2876    8958.0505      1712602   -95.965871   -42.532061   -16.483152     119.6425     119.6425     119.6425 
  265000    876.04352    77.885766    2789.4353    8829.7438      1712602    77.550898    95.560529    60.545872     119.6425     119.6425     119.6425 
  266000    888.06913    60.517746    2695.2753    8886.6981      1712602    146.41277    32.978791     2.161675     119.6425     119.6425     119.6425 
  267000     878.3461    24.171472    2692.5967    8918.5492      1712602    40.427963     34.88508   -2.7986271     119.6425     119.6425     119.6425 
  268000    895.00924   -36.920657    2667.5784    8892.0114      1712602   -76.997044    18.891623   -52.656549     119.6425     119.6425     119.6425 
  269000    881.07103    -96.66359      2720.65    8880.9595      1712602   -52.223997   -135.89555   -101.87122     119.6425     119.6425     119.6425 
  270000    892.55132     9.767018    2714.7657    8851.2617      1712602   -20.331663    11.888112    37.744605     119.6425     119.6425     119.6425 
  271000    862.73834   -84.057969    2789.3973    8867.0553      1712602   -145.67098   -107.92098    1.4180565     119.6425     119.6425     119.6425 
  272000     896.6865    88.080811    2720.9942    8831.2665      1712602    67.988237    131.91191    64.342287     119.6425     119.6425     119.6425 
  273000    846.91292   -79.972182    2808.0994    8895.4846      1712602   -117.13983   -78.321297   -44.455415     119.6425     119.6425     119.6425 
  274000    883.81746   -43.322855    2784.7578    8805.4811      1712602   -35.902721   -2.4188162   -91.647028     119.6425     119.6425     119.6425 
  275000    859.81659    60.109547    2779.8091    8883.0337      1712602    78.397824    52.501055    49.429762     119.6425     119.6425     119.6425 
  276000     881.0212     3.792081    2782.5632    8814.8722      1712602    45.920344    39.839631   -74.383732     119.6425     119.6425     119.6425 
  277000    854.25237   -2.0804634    2783.0363    8895.5713      1712602   -51.634364    21.888693    23.504281     119.6425     119.6425     119.6425 
  278000    861.39902   -83.581662    2837.3366     8818.848      1712602   -82.739288   -96.956712   -71.048985     119.6425     119.6425     119.6425 
  279000    849.89498   -136.26185    2830.3259    8860.3879      1712602   -129.07045   -108.81025   -170.90486     119.6425     119.6425     119.6425 
  280000    866.48329    -61.82911    2766.9247    8872.5871      1712602   -13.389585   -74.654163   -97.443582     119.6425     119.6425     119.6425 
  281000     898.4232     71.13995     2733.267    8808.0481      1712602    40.525251    130.17137    42.723231     119.6425     119.6425     119.6425 
  282000    879.44304    63.438743    2744.5707    8854.2207      1712602    99.342572    70.126776    20.846882     119.6425     119.6425     119.6425 
  283000     899.4604   -104.02058    2700.9403     8836.134      1712602   -116.85813    -80.47548   -114.72812     119.6425     119.6425     119.6425 
  284000    863.57655    21.067186    2761.5015     8884.573      1712602    58.636712   -24.649748    29.214594     119.6425     119.6425     119.6425 
  285000    866.78829    107.01476    2750.4243    8885.1549      1712602    77.681777    77.019234    166.34327     119.6425     119.6425     119.6425 
  286000    861.98835    -33.72855    2766.4079    8883.2284      1712602    122.89826   -9.6772958   -214.40661     119.6425     119.6425     119.6425 
  287000     883.8513   -76.557433    2767.7438    8814.5206      1712602   -165.07103   -84.413871    19.812596     119.6425     119.6425     119.6425 
  288000    866.59799    51.112176    2820.9763    8813.3824      1712602    29.166802    53.128749    71.040978     119.6425     119.6425     119.6425 
  289000    855.69059   -13.472748    2754.4355    8912.6446      1712602   -29.526608    -20.20787    9.3162336     119.6425     119.6425     119.6425 
  290000    868.78761   -27.365339    2816.3887     8809.988      1712602   -29.499315   -56.431523    3.8348221     119.6425     119.6425     119.6425 
  291000    865.78628   -24.281813    2698.0481    8936.9983      1712602   -12.962849   -87.769629    27.887038     119.6425     119.6425     119.6425 
  292000    873.71043    85.600638    2779.8039    8830.4451      1712602     61.40099    68.831724     126.5692     119.6425     119.6425     119.6425 
  293000     875.5361    -37.62524    2702.5763    8901.4831      1712602   -28.471657   -102.33076    17.926695     119.6425     119.6425     119.6425 
  294000    851.40179   -26.312336    2794.3548     8882.737      1712602    40.252071    40.184139   -159.37322     119.6425     119.6425     119.6425 
  295000    888.23192    20.172641    2689.8343    8874.1121      1712602    89.191882    14.823921   -43.497881     119.6425     119.6425     119.6425 
  296000    871.87299    64.612439    2830.0983    8783.1238      1712602   -15.893552   -36.960551    246.69142     119.6425     119.6425     119.6425 
  297000    861.62946   -57.491884    2791.0022    8852.8811      1712602    -69.23362   -109.73862    6.4965828     119.6425     119.6425     119.6425 
  298000    878.97471   -16.290892    2781.4689    8808.7678      1712602   -51.952944    49.672616   -46.592349     119.6425     119.6425     119.6425 
  299000    877.95431   -75.478821     2700.784    8891.7933      1712602   -154.12639   -38.507006   -33.803071     119.6425     119.6425     119.6425 
  300000    872.20612  -0.50559211    2732.4731    8876.9502      1712602   -26.120075    6.0123292    18.590969     119.6425     119.6425     119.6425 
  301000    873.95261   -33.633888    2725.9624     8877.349      1712602    53.055862   -75.108437   -78.849088     119.6425     119.6425     119.6425 
  302000    852.58223    75.250928     2740.784    8927.2254      1712602    93.562776    59.480504    72.709502     119.6425     119.6425     119.6425 
  303000    860.97381    81.018481    2820.4415    8821.4465      1712602    56.303867     73.36688    113.38469     119.6425     119.6425     119.6425 
  304000    885.26829    -147.2027    2652.9129    8914.1091      1712602   -111.92753   -254.65364   -75.026939     119.6425     119.6425     119.6425 
  305000    889.61589   -8.5668407    2778.5225    8774.4946      1712602   -90.345917    33.855198    30.790197     119.6425     119.6425     119.6425 
  306000     860.1742   -46.205744    2653.4903    8988.7746      1712602    3.9691226   -24.166742   -118.41961     119.6425     119.6425     119.6425 
  307000    891.71613    19.066181    2785.5531     8759.678      1712602    52.085107   -40.298358    45.411794     119.6425     119.6425     119.6425 
  308000    853.32811    34.154588    2721.7872    8939.9144      1712602    48.308339     12.67865    41.476775     119.6425     119.6425     119.6425 
  309000    873.08915   -60.219719    2801.7546    8799.1062      1712602   -70.990159   -28.836754   -80.832246     119.6425     119.6425     119.6425 
  310000    865.94707    10.998668    2751.1456    8870.9591      1712602    -21.00764    48.592826    5.4108163     119.6425     119.6425     119.6425 
  311000    856.35019   -6.8590593    2777.3278    8873.4016      1712602   -48.634862    45.599158   -17.541474     119.6425     119.6425     119.6425 
  312000    848.04817    -68.51263    2853.0707    8822.4315      1712602    30.371338   -114.33527   -121.57396     119.6425     119.6425     119.6425 
  313000    888.64167   -91.333209    2640.1688    8910.8304      1712602   -94.198653   -147.56731   -32.233664     119.6425     119.6425     119.6425 
  314000    862.54659    12.457199    2838.9302    8791.1261      1712602    41.414992    96.029413   -100.07281     119.6425     119.6425     119.6425 
  315000    874.26172   -39.305687    2698.2492    8895.5549      1712602   -17.389189    22.734354   -123.26223     119.6425     119.6425     119.6425 
  316000    872.46271    70.650055    2843.5229    8755.3495      1712602     82.17548    101.34744    28.427241     119.6425     119.6425     119.6425 
  317000    870.57583    25.415564    2729.8834    8874.3039      1712602   -10.422569    26.422818    60.246443     119.6425     119.6425     119.6425 
  318000    828.86467    -33.32581    2766.1074     8964.739      1712602    48.720311   -53.087237   -95.610505     119.6425     119.6425     119.6425 
  319000    866.03514    45.540501     2768.624    8848.0081      1712602    56.181158   -54.080958     134.5213     119.6425     119.6425     119.6425 
  320000    872.14774    121.69505    2695.4339    8902.0631      1712602    39.670957    101.62333    223.79086     119.6425     119.6425     119.6425 
  321000    896.54364   -203.99066    2650.6449    8871.8679      1712602   -181.50121   -180.95231   -249.51847     119.6425     119.6425     119.6425 
  322000    883.92549    -53.24609    2671.4822    8889.0281      1712602   -38.741512   -34.633304   -86.363455     119.6425     119.6425     119.6425 
  323000    847.25615   -39.740843    2819.6098    8852.1278      1712602    16.878375   -64.137341   -71.963563     119.6425     119.6425     119.6425 
  324000    853.10781    -3.738407    2740.7816    8912.5832      1712602     62.29234   -21.589903   -51.917658     119.6425     119.6425     119.6425 
  325000    855.96256    24.907589    2769.6101    8874.5375      1712602   -108.64897    56.166668    127.20507     119.6425     119.6425     119.6425 
  326000    876.23177    19.206221    2735.3846    8846.2139      1712602    89.144048    12.673412   -44.198799     119.6425     119.6425     119.6425 
  327000    876.12004   -64.000337    2734.8636    8846.4766      1712602    -59.60596   -2.7903763   -129.60467     119.6425     119.6425     119.6425 
  328000    845.73554    125.98046    2849.6636      8823.91      1712602    122.85643     177.3794    77.705553     119.6425     119.6425     119.6425 
  329000    852.37982   -46.405146    2742.4247    8910.3487      1712602     29.52611   -101.57275   -67.168793     119.6425     119.6425     119.6425 
  330000    869.56402    28.670739     2760.523    8839.2359      1712602    187.94649   -85.165488   -16.768786     119.6425     119.6425     119.6425 
  331000    865.40584    70.383385    2679.9526    8931.8167      1712602    116.75068    56.450348    37.949127     119.6425     119.6425     119.6425 
  332000    890.43472   -48.072934    2779.3085    8755.3996      1712602   -74.701625   -14.257819   -55.259359     119.6425     119.6425     119.6425 
  333000    864.67379   -9.1065266    2804.8816    8807.7708      1712602   -15.386138   -22.562573    10.629132     119.6425     119.6425     119.6425 
  334000    856.74203   -32.638056    2779.7973    8856.6118      1712602    -71.10711   -27.817433    1.0103735     119.6425     119.6425     119.6425 
  335000    871.16722   -106.18756    2764.1735    8827.5981      1712602   -65.108479   -174.48385   -78.970333     119.6425     119.6425     119.6425 
  336000    886.99341   -49.403491    2684.9709    8857.8133      1712602   -95.301005    36.765699   -89.675168     119.6425     119.6425     119.6425 
  337000    873.71884    17.032723    2730.5282    8852.1791      1712602     62.58418   -5.7272881   -5.7587214     119.6425     119.6425     119.6425 
  338000    857.16139   -46.779858    2757.2043    8875.5814      1712602   -27.694794    -127.2726    14.627816     119.6425     119.6425     119.6425 
  339000    868.62024    56.928755    2827.8968    8769.3195      1712602    6.3943226    57.063136    107.32881     119.6425     119.6425     119.6425 
  340000    892.05981   -20.390768      2658.15    8866.7743      1712602   -111.51284   -22.910737    73.251271     119.6425     119.6425     119.6425 
  341000    877.45731    86.870659      2784.69    8784.0642      1712602    185.07022     73.38967      2.15209     119.6425     119.6425     119.6425 
  342000    857.24589    11.498553    2673.1305    8956.7181      1712602    8.0492866   -18.383838     44.83021     119.6425     119.6425     119.6425 
  343000    874.13863    6.4155904    2694.4137    8883.2872      1712602   -44.151913    101.88599   -38.487303     119.6425     119.6425     119.6425 
  344000    875.49977     50.83941    2815.1534    8757.8085      1712602    130.15512      4.89845    17.464655     119.6425     119.6425     119.6425 
  345000    908.35128   -8.8122455    2695.5132    8776.6908      1712602   -34.011239   -45.453235    53.027737     119.6425     119.6425     119.6425 
  346000    855.04021    64.409534    2772.3957    8861.8562      1712602    40.577225    78.486754    74.164623     119.6425     119.6425     119.6425 
  347000     872.4456   -43.172413    2753.7391    8826.8055      1712602   -168.02282    26.037512    12.468074     119.6425     119.6425     119.6425 
  348000    883.56603    100.56167    2639.8169    8906.1812      1712602    100.59714    52.001308    149.08658     119.6425     119.6425     119.6425 
  349000    858.70858   -103.06281    2694.4213    8926.9043      1712602   -61.790215   -24.789809   -222.60839     119.6425     119.6425     119.6425 
  350000    885.42818   0.81597491    2686.3545     8852.904      1712602   -24.334284    24.940298     1.841911     119.6425     119.6425     119.6425 
  351000    875.80984    30.098926    2751.8382    8816.0048      1712602    36.896576    57.577035   -4.1768336     119.6425     119.6425     119.6425 
  352000     863.7713   -38.737674    2769.5349    8834.4119      1712602   -12.261228   -27.032523   -76.919272     119.6425     119.6425     119.6425 
  353000    855.49646 -0.0035908864     2750.657    8878.0274      1712602    27.189857   -83.831698    56.631068     119.6425     119.6425     119.6425 
  354000    894.27535   -58.877528    2670.4173    8839.3498      1712602    -97.59675    4.6505771    -83.68641     119.6425     119.6425     119.6425 
  355000    878.77226    91.753011    2695.3386    8861.0397      1712602    244.55765    25.721134    4.9802463     119.6425     119.6425     119.6425 
  356000    874.58794    42.640734    2718.6262     8849.973      1712602    71.409912    69.064884   -12.552594     119.6425     119.6425     119.6425 
  357000    872.57472    16.994921    2716.1615    8858.0786      1712602    53.365089    63.177768   -65.558096     119.6425     119.6425     119.6425 
  358000    865.52626    40.037095    2679.7402    8915.4823      1712602    133.35694    46.505144   -59.750799     119.6425     119.6425     119.6425 
  359000    886.48946    -20.35386    2746.6435    8783.8954      1712602     20.18799   -58.875165   -22.374406     119.6425     119.6425     119.6425 
  360000    837.74614   -116.44534    2736.9824    8941.7397      1712602   -161.46405   -158.09345   -29.778506     119.6425     119.6425     119.6425 
  361000    866.11242    67.685764    2701.4664    8890.0078      1712602    79.266627   0.57243169    123.21823     119.6425     119.6425     119.6425 
  362000    854.39654    30.168554    2744.7767    8881.9489      1712602     101.2336   -16.775846    6.0479072     119.6425     119.6425     119.6425 
  363000    900.46594    20.418841    2604.6118    8880.9401      1712602   -42.488715    75.405243    28.339994     119.6425     119.6425     119.6425 
  364000    854.27476   -68.700296    2803.4451    8822.5826      1712602   -33.008402   -79.812139   -93.280348     119.6425     119.6425     119.6425 
  365000    840.38718   -98.964434    2842.4242    8825.5461      1712602   -176.75306   -103.42824   -16.711996     119.6425     119.6425     119.6425 
  366000    874.30638   -27.906344    2666.8446    8897.1371      1712602   -63.455848   -38.624853    18.361668     119.6425     119.6425     119.6425 
  367000    881.79131   -34.293177    2752.1642    8788.4449      1712602   -14.442293   -121.62261    33.185374     119.6425     119.6425     119.6425 
  368000    875.42884   -84.666638    2641.1597    8918.3338      1712602   -76.968197    -66.00666   -111.02506     119.6425     119.6425     119.6425 
  369000    878.57492   -12.407205     2758.315     8790.918      1712602   -70.248883   -18.632982    51.660251     119.6425     119.6425     119.6425 
  370000    876.49202     54.90761    2603.2579    8951.7542      1712602    8.1850436    178.30107   -21.763285     119.6425     119.6425     119.6425 
  371000    897.46017   -30.143735    2672.4315    8817.9711      1712602   -91.228027   -52.822435    53.619259     119.6425     119.6425     119.6425 
  372000    882.21278   -23.273667     2642.616    8893.7747      1712602   -38.150623    69.740038   -101.41042     119.6425     119.6425     119.6425 
  373000    857.88697   -24.313988    2754.2003    8855.8691      1712602    39.673497    12.056241    -124.6717     119.6425     119.6425     119.6425 
  374000    870.75561     50.94364    2679.7369    8890.4916      1712602    40.239056    81.683392    30.908474     119.6425     119.6425     119.6425 
  375000    875.82992    42.835319    2649.4568     8904.595      1712602    116.76339   -12.391395    24.133964     119.6425     119.6425     119.6425 
  376000    886.12092    15.570519    2621.5656    8900.4451      1712602     -14.0044   -13.384683    74.100641     119.6425     119.6425     119.6425 
  377000    900.48975    34.017397    2590.6488    8886.9535      1712602     87.16866   -28.141266    43.024798     119.6425     119.6425     119.6425 
  378000    898.58185    27.210492    2658.8774     8823.692      1712602    84.530735   -40.047229    37.147968     119.6425     119.6425     119.6425 
  379000    870.47983   -54.529341     2680.377    8887.5249      1712602   -51.102591    29.149118   -141.63455     119.6425     119.6425     119.6425 
  380000     883.6106     -32.7706    2772.9706    8754.2714      1712602   -74.619357   -46.915398    23.222955     119.6425     119.6425     119.6425 
  381000    865.99109   -76.842306    2675.4826    8904.8737      1712602   -91.179513   -42.722702   -96.624702     119.6425     119.6425     119.6425 
  382000    863.22937   -63.590354    2729.8113    8858.2726      1712602   -26.187819   -103.53399    -61.04925     119.6425     119.6425     119.6425 
  383000    846.95584    3.8518171    2743.2324     8893.683      1712602    27.405505   -3.8935964   -11.956457     119.6425     119.6425     119.6425 
  384000    886.88502   -63.882303    2684.0647    8830.3109      1712602    62.841404   -36.191261   -218.29705     119.6425     119.6425     119.6425 
  385000    852.26587    89.392962    2725.0827    8894.0529      1712602    108.89712    87.279402    72.002363     119.6425     119.6425     119.6425 
  386000    865.29744    108.86189    2644.5836    8933.9032      1712602    59.084486    89.628233    177.87294     119.6425     119.6425     119.6425 
  387000    869.48658    36.036744    2671.1086    8893.7062      1712602   -65.324516    42.738827    130.69592     119.6425     119.6425     119.6425 
  388000    869.48686   -24.436472    2631.3017    8932.8142      1712602    82.350183     14.56472   -170.22432     119.6425     119.6425     119.6425 
  389000    874.31885    -153.5761    2699.0599    8849.6193      1712602   -59.923579   -92.993033   -307.81168     119.6425     119.6425     119.6425 
  390000    833.86459   -87.577533    2785.6504    8885.8196      1712602   -68.693234   -64.318342   -129.72102     119.6425     119.6425     119.6425 
  391000    855.77732    22.572065    2692.3892    8911.5523      1712602   -34.570582    38.359112    63.927666     119.6425     119.6425     119.6425 
  392000    869.00271    68.824987    2722.2669    8840.6621      1712602    57.136003   -30.585178    179.92414     119.6425     119.6425     119.6425 
  393000    896.04668   -20.023297    2676.6948    8803.0477      1712602   -42.798103    3.9198891   -21.191676     119.6425     119.6425     119.6425 
  394000    893.58629   -108.68375    2610.2102    8876.2682      1712602   -102.23046   -13.123195    -210.6976     119.6425     119.6425     119.6425 
  395000    868.85041   -141.63735    2718.6205    8842.7049      1712602   -116.04085   -58.836429   -250.03478     119.6425     119.6425     119.6425 
  396000    873.39616   -34.029567     2630.264    8916.3713      1712602   -44.095296   -71.717431    13.724025     119.6425     119.6425     119.6425 
  397000    897.15542    99.026704    2618.6717    8854.7066      1712602    145.94663    115.14944    35.984034     119.6425     119.6425     119.6425 
  398000    915.50863   -10.628818    2590.0032    8826.7169      1712602    13.618224   -41.603442   -3.9012341     119.6425     119.6425     119.6425 
  399000    869.93153   -3.9753871    2770.0137    8785.2439      1712602   -91.705919   -17.191593    96.971351     119.6425     119.6425     119.6425 
  400000    849.18714   -31.544411    2746.1482    8871.7351      1712602    58.862988   -82.624746   -70.871477     119.6425     119.6425     119.6425 
  401000    837.29768    91.217741    2797.8461    8855.7114      1712602    185.25853    27.074203    61.320493     119.6425     119.6425     119.6425 
  402000    862.57443   -87.009437     2767.765    8807.9479      1712602   -64.525052   -105.92637   -90.576892     119.6425     119.6425     119.6425 
  403000    870.05083    48.473085    2650.6541    8901.4733      1712602    68.075117   -23.445639    100.78978     119.6425     119.6425     119.6425 
  404000     872.6603    61.514643    2692.8959    8850.7436      1712602    3.1938284    52.918284    128.43182     119.6425     119.6425     119.6425 
  405000    881.94622   -77.664443    2630.2778    8884.1984      1712602   -67.318044     13.02271     -178.698     119.6425     119.6425     119.6425 
  406000    880.50358   -96.223067    2743.2274    8774.8729      1712602   -101.78309   -88.320642   -98.565466     119.6425     119.6425     119.6425 
  407000    896.37189    96.839445    2570.6666    8898.3769      1712602  -0.24526569    68.946385    221.81721     119.6425     119.6425     119.6425 
  408000    883.71783    5.4239359    2592.8684     8913.986      1712602   -68.317303   -35.455222    120.04433     119.6425     119.6425     119.6425 
  409000    869.81657   -89.021249    2661.4152    8887.2267      1712602    -118.3996   -64.367445   -84.296697     119.6425     119.6425     119.6425 
  410000    901.90412   -31.170655    2635.3874    8814.6013      1712602    5.8469264   -124.86369    25.504797     119.6425     119.6425     119.6425 
  411000     881.6158    125.59841    2703.7899    8807.4446      1712602        179.8    69.377163    127.61807     119.6425     119.6425     119.6425 
  412000    831.81665    53.849281    2736.4746    8926.0385      1712602    27.122838    7.4642468    126.96076     119.6425     119.6425     119.6425 
  413000    847.52458    37.908004    2729.3187    8884.6912      1712602    66.027151    61.417325   -13.720464     119.6425     119.6425     119.6425 
  414000    901.23093    45.806386    2652.0315    8797.4549      1712602     95.66834    16.961372    24.789445     119.6425     119.6425     119.6425 
  415000     889.6137   -69.252696    2680.0677    8804.3181      1712602   -118.18983   -109.82263    20.254371     119.6425     119.6425     119.6425 
  416000    895.06617   -64.257441    2610.3918    8856.6431      1712602   -76.427419   -35.340081   -81.004823     119.6425     119.6425     119.6425 
  417000    871.63669    30.353791    2662.1715    8875.8053      1712602    3.5468831   -3.3391123    90.853602     119.6425     119.6425     119.6425 
  418000    847.57654   -26.580717    2757.3942    8853.3787      1712602   -53.879903   -35.219976    9.3577296     119.6425     119.6425     119.6425 
  419000    864.84738   -5.4726417    2723.4546     8833.917      1712602    76.485309    10.284504   -103.18774     119.6425     119.6425     119.6425 
  420000    813.43714    8.9412026    2846.3246    8867.4014      1712602    -1.485385   -73.658178    101.96717     119.6425     119.6425     119.6425 
  421000    855.15817   -125.38895    2724.3163    8861.5371      1712602   -0.6104116   -184.88756   -190.66888     119.6425     119.6425     119.6425 
  422000     888.1164   -89.042855    2688.3722    8796.2442      1712602   -71.754376   -101.57583   -93.798356     119.6425     119.6425     119.6425 
  423000    860.49671   -26.813646    2696.5911    8871.5587      1712602    -56.14724   -123.22062    98.926922     119.6425     119.6425     119.6425 
  424000    869.53775    61.132421    2760.2102    8779.7274      1712602     63.27005    75.878175    44.249038     119.6425     119.6425     119.6425 
  425000    879.94296   -49.064127    2645.5044    8862.0422      1712602   -9.9866011   -97.970323   -39.235456     119.6425     119.6425     119.6425 
  426000    858.56376   -18.903807    2778.9978    8793.1927      1712602   -15.239741    30.035472   -71.507152     119.6425     119.6425     119.6425 
  427000    868.32616    38.223775    2714.4907     8827.219      1712602   -36.355859    72.463357    78.563826     119.6425     119.6425     119.6425 
  428000    857.83738   -51.374878    2665.7707     8907.429      1712602    -57.71082   -113.54427    17.130455     119.6425     119.6425     119.6425 
  429000    865.19669     15.60291    2750.6337    8799.3819      1712602    24.983676    18.044118    3.7809352     119.6425     119.6425     119.6425 
  430000    837.18355   -57.079755    2733.5271    8901.4235      1712602   -142.20072    63.909819    -92.94837     119.6425     119.6425     119.6425 
  431000    861.43539    -36.69866    2737.6236    8822.6774      1712602   -6.4425321   -76.088099   -27.565348     119.6425     119.6425     119.6425 
  432000    881.03067   -0.7317483    2653.8777    8845.8815      1712602    2.4594185    21.367136     -26.0218     119.6425     119.6425     119.6425 
  433000    871.46267    118.23506    2724.8397    8803.4598      1712602    142.88255    130.39756    81.425075     119.6425     119.6425     119.6425 
  434000    891.88964    10.379755    2629.5119    8835.8978      1712602     80.24763   -63.511515    14.403151     119.6425     119.6425     119.6425 
  435000    901.97545    64.931692    2669.6717    8764.4082      1712602    45.880544    9.4031732    139.51136     119.6425     119.6425     119.6425 
  436000    831.07141   -11.344355    2698.5627    8951.2487      1712602     8.821326    4.6586184    -47.51301     119.6425     119.6425     119.6425 
  437000    901.85864   -4.8488181    2597.6523    8835.4998      1712602    42.689212    16.714994    -73.95066     119.6425     119.6425     119.6425 
  438000    875.27193   -31.994263    2694.2927    8819.3669      1712602    24.064115   -5.8383607   -114.20854     119.6425     119.6425     119.6425 
  439000    908.03645    18.208716    2633.9189    8779.0708      1712602    70.963196   -87.963818    71.626771     119.6425     119.6425     119.6425 
  440000    864.42869    74.090485    2710.8384    8834.7413      1712602     18.13776    57.407876    146.72582     119.6425     119.6425     119.6425 
  441000    858.63967    93.785602    2674.0338    8888.6597      1712602    43.775349    46.439611    191.14184     119.6425     119.6425     119.6425 
  442000    843.91061   -53.904124    2783.3618    8823.7677      1712602   -38.459421   -29.671407   -93.581544     119.6425     119.6425     119.6425 
  443000    853.50164   -92.403529    2733.6497    8843.5095      1712602   -82.760928   -61.527683   -132.92198     119.6425     119.6425     119.6425 
  444000    839.87879   -20.337575    2785.4849     8832.698      1712602    87.081589   -12.380148   -135.71417     119.6425     119.6425     119.6425 
  445000    867.73121   -45.626388    2700.7422    8831.7954      1712602   -26.004138   -96.462489   -14.412537     119.6425     119.6425     119.6425 
  446000    885.97863    82.079138    2657.5092     8818.612      1712602    105.63525    14.205142    126.39702     119.6425     119.6425     119.6425 
  447000    877.01049    27.793321    2661.0498     8841.888      1712602   -63.045933    86.470304     59.95559     119.6425     119.6425     119.6425 
  448000    875.62547   -30.104257    2615.0353    8891.6089      1712602    83.995574    51.502648   -225.81099     119.6425     119.6425     119.6425 
  449000    882.63861   -98.959101    2650.1774    8834.4254      1712602   -111.84908   -129.84465   -55.183579     119.6425     119.6425     119.6425 
  450000    849.57218   -40.706663    2728.6141    8856.3435      1712602   -21.943664    -26.73041   -73.445914     119.6425     119.6425     119.6425 
  451000    871.05774   -26.859002    2669.5048    8849.4196      1712602   -3.1958386    3.7653926   -81.146559     119.6425     119.6425     119.6425 
  452000    914.86344    98.537236    2637.0377    8747.4774      1712602    88.359342    9.0908568    198.16151     119.6425     119.6425     119.6425 
  453000    870.57555     116.4758    2632.6642    8886.5023      1712602     42.30024    117.95364    189.17352     119.6425     119.6425     119.6425 
  454000    877.31058   -62.475702    2656.7473    8841.1693      1712602   -11.100829   -124.36762   -51.958658     119.6425     119.6425     119.6425 
  455000    866.84099   -66.408335     2678.138    8851.1695      1712602   -29.396435   -57.827812   -112.00076     119.6425     119.6425     119.6425 
  456000    879.10086   -153.91814    2707.1223    8784.0959      1712602   -128.90275   -124.96096   -207.89071     119.6425     119.6425     119.6425 
  457000    881.39434    19.099215    2580.2211    8903.3756      1712602    122.59912   -118.97837    53.676894     119.6425     119.6425     119.6425 
  458000     866.0703    25.663663    2744.6862    8785.0835      1712602   -15.318846    102.40492   -10.095085     119.6425     119.6425     119.6425 
  459000    883.01765   -40.076483    2641.9251    8835.4279      1712602   -73.321787    9.2191396   -56.126803     119.6425     119.6425     119.6425 
  460000    841.29045   -77.605161    2712.2886    8891.7874      1712602   -139.86106   -3.3560151   -89.598408     119.6425     119.6425     119.6425 
  461000    870.09945   -79.885129    2681.4362    8834.0777      1712602   -74.882876   -9.8584913   -154.91402     119.6425     119.6425     119.6425 
  462000    851.44669    15.946619    2740.3564    8831.5324      1712602    9.2446256   -52.538252    91.133485     119.6425     119.6425     119.6425 
  463000    897.32647    57.564455    2585.1807    8846.0972      1712602      64.6829     31.91264    76.097824     119.6425     119.6425     119.6425 
  464000    844.13383    57.501256    2698.4055    8894.7243      1712602    20.729775   -12.330727    164.10472     119.6425     119.6425     119.6425 
  465000     879.0305    16.866015     2665.846    8820.2227      1712602   -6.5595369    8.5336257    48.623955     119.6425     119.6425     119.6425 
  466000     862.4592   -11.428533    2594.5924    8941.4135      1712602   -8.1726614   -63.779219    37.666281     119.6425     119.6425     119.6425 
  467000     864.9577   -67.946812    2652.5207    8875.2003      1712602   -113.56918   -106.86051    16.589255     119.6425     119.6425     119.6425 
  468000    867.83673    160.14263    2627.3325    8890.9854      1712602    162.10773    150.03733    168.28282     119.6425     119.6425     119.6425 
  469000    874.00045    121.99104    2616.9143    8882.0964      1712602    50.834005    118.86551    196.27362     119.6425     119.6425     119.6425 
  470000    881.02153    46.374975    2642.8399    8834.1915      1712602    56.937755  -0.46034833    82.647518     119.6425     119.6425     119.6425 
  471000    865.97805    12.200982    2668.9057    8853.4578      1712602    18.012252    118.57593   -99.985238     119.6425     119.6425     119.6425 
  472000    876.48752   -27.518435    2647.8766    8841.7882      1712602   -48.511767   -44.544961    10.501423     119.6425     119.6425     119.6425 
  473000     888.9153   -19.522844    2592.2455     8858.888      1712602   -7.8637908   -50.412443  -0.29229831     119.6425     119.6425     119.6425 
  474000    880.75905   -49.336648    2583.5558    8891.7778      1712602    -78.10757   -55.820872   -14.081502     119.6425     119.6425     119.6425 
  475000    867.85225    21.880621     2653.889    8860.2053      1712602   -9.1204009    30.850972    43.911292     119.6425     119.6425     119.6425 
  476000    888.23834    114.08674    2608.2658    8843.1117      1712602    72.130168    113.07483    157.05522     119.6425     119.6425     119.6425 
  477000    859.92556     53.67248    2670.1948    8867.0458      1712602    29.099225    19.025891    112.89232     119.6425     119.6425     119.6425 
  478000    861.05209   -34.340994    2674.9455     8858.165      1712602    44.669872   -57.241343    -90.45151     119.6425     119.6425     119.6425 
  479000    854.43334   -61.511895    2665.2737    8887.4842      1712602   -21.529016    38.496638   -201.50331     119.6425     119.6425     119.6425 
  480000    860.04753    13.513681    2681.2803     8853.842      1712602   -41.310428    7.0656229    74.785848     119.6425     119.6425     119.6425 
  481000    882.20952   -1.5463867    2583.6569    8883.3249      1712602   -56.629497    1.5819692    50.408368     119.6425     119.6425     119.6425 
  482000    843.17418    109.92625    2643.3695    8942.1387      1712602    89.792821    20.143114    219.84281     119.6425     119.6425     119.6425 
  483000    840.25671    72.579959    2699.4544    8894.5034      1712602    33.935185    27.701145    156.10355     119.6425     119.6425     119.6425 
  484000    872.29147    26.979706    2677.5653    8817.9943      1712602     91.18501   -7.6776822   -2.5682093     119.6425     119.6425     119.6425 
  485000    863.64048    2.8825588    2699.7223    8821.7679      1712602    34.746975    64.766938   -90.866237     119.6425     119.6425     119.6425 
  486000    884.46702    41.900169    2672.0075    8785.3656      1712602    48.724697   -2.1979232    79.173734     119.6425     119.6425     119.6425 
  487000    866.73841    50.821382    2680.3413    8830.6683      1712602    3.1338599    95.220767     54.10952     119.6425     119.6425     119.6425 
  488000    863.16385      77.3903    2687.0219    8834.3137      1712602    104.70692    68.151217    59.312761     119.6425     119.6425     119.6425 
  489000    867.43618     14.40214    2637.2561    8870.5171      1712602 -0.082914373    36.994301    6.2950349     119.6425     119.6425     119.6425 
  490000    860.98063   -19.829157    2672.5032    8854.2829      1712602   -19.626086    70.730069   -110.59146     119.6425     119.6425     119.6425 
  491000    851.60537    18.217482    2657.3615    8897.4609      1712602    72.081975    60.266278   -77.695807     119.6425     119.6425     119.6425 
  492000    856.83601    179.53365    2710.0184    8828.3113      1712602    112.57926    230.91743    195.10426     119.6425     119.6425     119.6425 
  493000     849.1652   -86.933935    2647.0034    8914.2958      1712602   -94.587479    -178.2433    12.028973     119.6425     119.6425     119.6425 
  494000    857.64845    7.8279986    2671.6014    8863.2213      1712602    39.112603   -23.109404    7.4807965     119.6425     119.6425     119.6425 
  495000    836.36646   -2.9949025    2725.3484    8873.8478      1712602   -24.563896   -9.6724755    25.251664     119.6425     119.6425     119.6425 
  496000    858.95989   -12.204374    2694.5025    8835.1601      1712602     9.972515    3.0599273   -49.645563     119.6425     119.6425     119.6425 
  497000    866.71107   -7.4680937    2630.0255    8875.2431      1712602    61.658185   -37.287675   -46.774791     119.6425     119.6425     119.6425 
  498000    871.23167   -47.871001    2688.9017    8801.9884      1712602    -53.47603   -68.653459   -21.483514     119.6425     119.6425     119.6425 
  499000    855.54946   -30.972207    2708.2423     8830.043      1712602   -67.521967   -50.790926    25.396273     119.6425     119.6425     119.6425 
  500000    848.04183   -14.255534    2779.9646    8780.6657      1712602   -77.362492    56.538076   -21.942186     119.6425     119.6425     119.6425 
  501000    864.03818   -62.446606    2666.8436    8844.3447      1712602   -98.715915   -98.100911    9.4770071     119.6425     119.6425     119.6425 
  502000    884.34366    62.164755    2638.9468    8809.7707      1712602    124.48503    93.348034   -31.338795     119.6425     119.6425     119.6425 
  503000    868.08895   -72.669361    2679.7805    8818.1209      1712602   -9.5716967   -9.4870495   -198.94934     119.6425     119.6425     119.6425 
  504000    892.50087   -82.903165    2557.3801    8865.4139      1712602   -21.879319   -34.609226   -192.22095     119.6425     119.6425     119.6425 
  505000    866.02241   -67.880322    2665.4866    8837.5761      1712602   -76.284537   -15.776544   -111.57988     119.6425     119.6425     119.6425 
  506000     866.7619    25.126223    2572.1924    8927.9962      1712602    87.607594   -44.651294    32.422368     119.6425     119.6425     119.6425 
  507000    888.01697    36.789461    2621.9944     8812.702      1712602   -2.8422586   -18.521073    131.73171     119.6425     119.6425     119.6425 
  508000    863.83072   -16.905302    2661.8491    8846.1507      1712602    28.069626   -4.1394196   -74.646113     119.6425     119.6425     119.6425 
  509000    879.58634   -19.096671    2615.2754    8843.9651      1712602   -56.233943    -44.16698    43.110909     119.6425     119.6425     119.6425 
  510000    881.03736   -102.46978    2537.3381     8916.683      1712602   -47.804648   -103.86673   -155.73797     119.6425     119.6425     119.6425 
  511000    876.50961   -5.5887695    2626.0811    8841.2159      1712602    67.807071   -56.302767   -28.270613     119.6425     119.6425     119.6425 
  512000    866.86124    45.641529    2685.3387    8810.8545      1712602    56.167033    11.462576    69.294978     119.6425     119.6425     119.6425 
  513000    877.55999    9.0166709    2586.4727     8876.521      1712602   -16.877207     31.67805    12.249169     119.6425     119.6425     119.6425 
  514000    884.94184    3.4842639    2654.3287    8785.7079      1712602    34.209531    5.1448032   -28.901542     119.6425     119.6425     119.6425 
  515000     863.1745   -108.59789    2626.7663    8879.1754      1712602   -69.725165   -92.762867   -163.30564     119.6425     119.6425     119.6425 
  516000    832.54742  -0.67821972    2753.0356    8845.8967      1712602    50.929348   -63.008839    10.044831     119.6425     119.6425     119.6425 
  517000    846.67054   -55.851495    2661.6405    8893.7808      1712602    5.7045366   -101.03328   -72.225736     119.6425     119.6425     119.6425 
  518000     862.1641   -4.2302136    2637.2243    8870.3237      1712602    26.040538   -9.9922799   -28.738899     119.6425     119.6425     119.6425 
  519000    854.11742    89.069171    2705.6424    8825.9565      1712602     50.62066    93.492503    123.09435     119.6425     119.6425     119.6425 
  520000    863.22303   -8.4513776     2619.654    8883.6695      1712602    118.81607   -2.7944282   -141.37577     119.6425     119.6425     119.6425 
  521000    853.68514    51.277441    2754.1062    8777.8979      1712602    22.105868    24.093285    107.63317     119.6425     119.6425     119.6425 
  522000    865.13788    26.176724    2541.6975    8954.7216      1712602    71.915144   -61.961679    68.576706     119.6425     119.6425     119.6425 
  523000    857.68591   -6.1526356    2745.2618    8773.2582      1712602    -119.0576    -41.69179    142.29148     119.6425     119.6425     119.6425 
  524000    844.82403   -11.673844    2641.0173    8916.1227      1712602    -77.07132    16.052235    25.997552     119.6425     119.6425     119.6425 
  525000    861.07489    77.670646     2692.775    8814.1902      1712602    3.3114141    123.42002     106.2805     119.6425     119.6425     119.6425 
  526000    876.15432   -37.472215    2625.9623    8834.2592      1712602   -72.457008   -81.764015    41.804377     119.6425     119.6425     119.6425 
  527000    888.62744    68.383936    2513.6879    8907.8151      1712602    16.571944    56.538493    132.04137     119.6425     119.6425     119.6425 
  528000    878.45169     -24.4408    2637.1209    8814.9373      1712602    16.389164   -58.473589   -31.237974     119.6425     119.6425     119.6425 
  529000    863.20353   -28.040855    2693.6194    8804.3274      1712602   -60.568594   -12.947708   -10.606264     119.6425     119.6425     119.6425 
  530000    896.49892     112.9084    2626.4905    8769.3376      1712602    184.97747    110.36216    43.385561     119.6425     119.6425     119.6425 
  531000    864.28517   -32.583304    2623.9561    8869.7105      1712602    -33.15821   -25.191146   -39.400556     119.6425     119.6425     119.6425 
  532000    853.24373     10.49159    2656.2304    8870.3439      1712602    75.319834   -22.453288   -21.391776     119.6425     119.6425     119.6425 
  533000    877.10981    42.359035    2639.1531    8813.9327      1712602   -10.330738    111.51758    25.890258     119.6425     119.6425     119.6425 
  534000    893.01732    15.220216     2585.634     8818.354      1712602     -10.1764    85.589044   -29.751994     119.6425     119.6425     119.6425 
  535000    862.78426   -7.6519922    2577.0829    8918.6121      1712602   -12.771517   -73.320268    63.135809     119.6425     119.6425     119.6425 
  536000    876.42988   -6.1742161    2629.8373    8823.5352      1712602   -35.444629    57.468782   -40.546801     119.6425     119.6425     119.6425 
  537000     855.8004    4.6965052    2660.5083    8855.1508      1712602    76.562122    23.414117   -85.886724     119.6425     119.6425     119.6425 
  538000    856.36278    19.175945    2627.5253    8885.6854      1712602    56.802852   -20.865506    21.590488     119.6425     119.6425     119.6425 
  539000    869.39335    4.3024794    2609.0343    8863.8397      1712602    52.838128   -74.329194    34.398504     119.6425     119.6425     119.6425 
  540000    891.74317   -16.012367    2609.1133    8794.9089      1712602    27.653776    -36.17053   -39.520347     119.6425     119.6425     119.6425 
  541000    905.80664   -9.1452614    2546.0878    8814.3464      1712602   -30.128517   -38.404007     41.09674     119.6425     119.6425     119.6425 
  542000    864.72017    8.9005823    2663.4253    8821.8116      1712602    13.749492    27.402065   -14.449809     119.6425     119.6425     119.6425 
  543000    871.49271    4.9115471    2624.0661    8839.9456      1712602    104.00869   -35.471793   -53.802257     119.6425     119.6425     119.6425 
  544000    878.33876   -113.61249    2566.1639    8876.2703      1712602   -134.41069   -93.893557   -112.53323     119.6425     119.6425     119.6425 
  545000    890.57176    92.389285    2568.0862    8836.5769      1712602    11.831393    75.314818    190.02164     119.6425     119.6425     119.6425 
  546000    850.47695   -37.935302    2649.2379    8877.0936      1712602    -78.79603    41.036103   -76.045979     119.6425     119.6425     119.6425 
  547000    866.74712   -18.874817    2599.2981    8876.7764      1712602   -6.8386248   -8.3097908   -41.476035     119.6425     119.6425     119.6425 
  548000    869.84398   -31.350063    2570.5183    8895.4508      1712602    8.2077838   -103.85692    1.5989499     119.6425     119.6425     119.6425 
  549000    850.55351    41.881498    2682.4892    8841.8604      1712602   -24.959365    103.92068    46.683176     119.6425     119.6425     119.6425 
  550000     865.5886    84.401913    2564.4836    8913.3742      1712602    7.0527783    37.345831    208.80713     119.6425     119.6425     119.6425 
  551000    883.27726    103.57753    2617.8783    8805.3444      1712602    181.76594     42.44279    86.523872     119.6425     119.6425     119.6425 
  552000      839.044   -101.31059    2648.4875    8909.1673      1712602   -75.198942   -141.96424   -86.768594     119.6425     119.6425     119.6425 
  553000    838.15336    -67.54343    2742.5154    8817.3192      1712602   -60.581661   -146.61755    4.5689247     119.6425     119.6425     119.6425 
  554000    874.07802    28.519751    2608.8031    8840.7886      1712602    -14.13129    112.08779   -12.397248     119.6425     119.6425     119.6425 
  555000    858.90872    72.415986    2720.2306    8775.1297      1712602    48.560001    63.348983    105.33897     119.6425     119.6425     119.6425 
  556000    847.77198   -14.573652    2653.7254    8875.0125      1712602   -30.357888    -25.05861    11.695543     119.6425     119.6425     119.6425 
  557000    881.09382   -1.4088281    2557.4326    8869.0188      1712602    11.647352   -32.726016    16.852179     119.6425     119.6425     119.6425 
  558000    870.80413   -98.374208    2590.8202    8866.4841      1712602   -48.414672   -122.95367   -123.75428     119.6425     119.6425     119.6425 
  559000     850.4926    98.011293    2599.3211    8919.2659      1712602    220.97274   -32.628885    105.69003     119.6425     119.6425     119.6425 
  560000    876.80616    54.026241    2647.0765    8790.4263      1712602     52.45286   -3.6083819    113.23424     119.6425     119.6425     119.6425 
  561000    866.95372   -32.369409    2618.1923    8848.8366      1712602   -73.292682   -65.242791    41.427244     119.6425     119.6425     119.6425 
  562000    867.49329     74.85241    2580.3452    8884.4226      1712602     87.41897    136.89789   0.24037104     119.6425     119.6425     119.6425 
  563000    858.48646   -49.696912    2552.3968    8939.0224      1712602   -18.588113    -101.4225   -29.080126     119.6425     119.6425     119.6425 
  564000    865.25344   -49.707797    2638.5326     8831.478      1712602   -136.34452     75.22779   -88.006664     119.6425     119.6425     119.6425 
  565000    874.88598   -104.07129     2600.069    8839.9085      1712602   -105.51625     -87.8608   -118.83681     119.6425     119.6425     119.6425 
  566000    857.05845    23.875075    2609.6977    8884.1071      1712602    17.557154   -34.954202    89.022274     119.6425     119.6425     119.6425 
  567000    900.37937   -3.5199304    2536.5295     8824.367      1712602    71.732567   -56.245545   -26.046813     119.6425     119.6425     119.6425 
  568000    874.71055    -7.617889    2569.7196    8868.7153      1712602    7.4542318    25.911045   -56.218944     119.6425     119.6425     119.6425 
  569000    882.49088   -9.2647412    2543.3428    8870.8599      1712602   -109.07166   -13.784572    95.062014     119.6425     119.6425     119.6425 
  570000    851.47204   -124.40782    2602.1103    8906.1699      1712602   -62.003224   -159.28122   -151.93903     119.6425     119.6425     119.6425 
  571000    857.84377   -50.060562    2658.8848    8829.1345      1712602   -54.444585   -46.480905   -49.256196     119.6425     119.6425     119.6425 
  572000    855.80736    68.067887    2650.2342     8843.287      1712602    37.684524    102.90051    63.618622     119.6425     119.6425     119.6425 
  573000    861.14769   -92.661296    2620.6496    8855.9603      1712602   -247.97865   -40.070584    10.065349     119.6425     119.6425     119.6425 
  574000    875.05225    116.06434    2521.3818    8912.1847      1712602    165.61871    104.49933    78.074994     119.6425     119.6425     119.6425 
  575000     872.6015    121.68014    2603.1801    8837.0941      1712602    31.605412    75.394576    258.04043     119.6425     119.6425     119.6425 
  576000    850.90782   -73.047177    2603.7253    8902.1391      1712602    14.334314   -109.33601   -124.13983     119.6425     119.6425     119.6425 
  577000    874.61623   -41.326864    2590.0838    8842.7938      1712602   -13.705832   -26.013479    -84.26128     119.6425     119.6425     119.6425 
  578000    870.37514    72.310428    2612.8114    8832.4424      1712602    79.582512    7.7197804    129.62899     119.6425     119.6425     119.6425 
  579000    910.48684   -10.105835    2527.0402    8795.1306      1712602    49.866665   -23.322194   -56.861977     119.6425     119.6425     119.6425 
  580000    866.49204    -46.64775    2649.9592    8805.9029      1712602   -60.634114    -30.42487   -48.884266     119.6425     119.6425     119.6425 
  581000    863.18709   -43.148758    2652.5013    8812.5277      1712602    17.546462   -61.096561   -85.896176     119.6425     119.6425     119.6425 
  582000    847.58508    2.2358777    2684.5826    8827.5638      1712602    62.008997   -19.267771   -36.033593     119.6425     119.6425     119.6425 
  583000    865.95478    66.311595    2641.5833    8813.8136      1712602    127.73175   -11.304166    82.507203     119.6425     119.6425     119.6425 
  584000    875.95992    19.255901    2624.8162     8799.589      1712602    69.694685   -100.89966    88.972682     119.6425     119.6425     119.6425 
  585000    838.78024     43.18565    2644.7218    8892.5728      1712602    74.755686   -13.024359    67.825624     119.6425     119.6425     119.6425 
  586000    852.00996   -28.971387    2642.8839    8853.3072      1712602   -93.970004    33.852134   -26.796293     119.6425     119.6425     119.6425 
  587000    834.20365   -36.834089    2679.3599    8870.3271      1712602   -92.908568    3.9516228   -21.545323     119.6425     119.6425     119.6425 
  588000    879.10474    88.592415    2588.3931    8823.5904      1712602    117.41106    92.080753    56.285434     119.6425     119.6425     119.6425 
  589000    873.12094    43.293731    2591.2853    8838.2362      1712602    27.694039    2.5246553      99.6625     119.6425     119.6425     119.6425 
  590000    848.52075   -7.2423785    2629.1454    8874.6591      1712602    18.150842   -18.083444   -21.794534     119.6425     119.6425     119.6425 
  591000      855.425   -5.6848933    2639.4311    8842.6969      1712602   -17.083603    21.062994   -21.034071     119.6425     119.6425     119.6425 
  592000    858.87012   -83.689039    2570.0408    8900.9448      1712602   -88.051537    7.8052024   -170.82078     119.6425     119.6425     119.6425 
  593000    859.13717   -1.8137301    2666.4338    8803.1253      1712602    -7.067409    3.6280035   -2.0017848     119.6425     119.6425     119.6425 
  594000    872.42916    65.803568    2596.2921    8831.9922      1712602    41.272099    110.66852    45.470088     119.6425     119.6425     119.6425 
  595000    850.43056   -54.369333    2701.1888    8793.4495      1712602   -140.61428   -2.6845016   -19.809218     119.6425     119.6425     119.6425 
  596000    871.02853   -135.52908     2636.807    8794.2754      1712602   -131.50457   -127.52932   -147.55335     119.6425     119.6425     119.6425 
  597000    853.23018    73.661744    2628.3017     8856.386      1712602    78.928419     51.92877    90.128044     119.6425     119.6425     119.6425 
  598000    843.10883   -84.533478    2653.8378    8861.2108      1712602   -10.067336   -100.65669   -142.87641     119.6425     119.6425     119.6425 
  599000     848.5525    19.977897    2648.2315    8849.6215      1712602   -5.5507133     14.01973    51.464674     119.6425     119.6425     119.6425 
  600000    870.33794   -39.877325    2585.0885    8845.5853      1712602   -152.39016   -75.999581    108.75777     119.6425     119.6425     119.6425 
  601000    853.38057    13.172855    2570.1669    8911.6871      1712602   -48.724763    9.8413919    78.401937     119.6425     119.6425     119.6425 
  602000    879.77818    76.222361    2582.8875    8817.7142      1712602    30.999109    128.36761    69.300365     119.6425     119.6425     119.6425 
  603000    874.07782    24.031351    2593.8185     8823.467      1712602    58.744709    21.941871   -8.5925256     119.6425     119.6425     119.6425 
  604000    845.89293    103.15035    2618.2304    8884.4043      1712602    161.99589    13.568705    133.88646     119.6425     119.6425     119.6425 
  605000    852.41465   -44.824732    2566.9837    8915.1669      1712602    55.083207   -102.93276   -86.624646     119.6425     119.6425     119.6425 
  606000     849.7895    20.970402    2657.8291    8831.7346      1712602    75.425286    43.334775   -55.848854     119.6425     119.6425     119.6425 
  607000    842.00744    18.149978     2625.984    8886.8305      1712602   -67.188782    12.597013     109.0417     119.6425     119.6425     119.6425 
  608000    855.12453   -46.129478    2702.4738    8769.5263      1712602   -17.341731   -44.287029   -76.759673     119.6425     119.6425     119.6425 
  609000    872.05717     96.91411    2565.4326    8854.2922      1712602     177.7818    106.14421    6.8163178     119.6425     119.6425     119.6425 
  610000    833.39966    -70.49369    2590.8561    8946.4174      1712602   -42.449502    -158.7755   -10.256071     119.6425     119.6425     119.6425 
  611000    871.84818   0.46430574    2567.8081    8851.5677      1712602   -38.791099    50.041874    -9.857858     119.6425     119.6425     119.6425 
  612000    884.94762    25.278814    2588.8579    8789.8553      1712602   -15.617239    76.948384    14.505297     119.6425     119.6425     119.6425 
  613000    858.27723    52.130171    2604.9212    8854.7592      1712602    90.610615    76.632051   -10.852153     119.6425     119.6425     119.6425 
  614000    862.45741    133.96327    2603.9257    8842.4151      1712602    159.68459    83.078439    159.12677     119.6425     119.6425     119.6425 
  615000    858.83004    88.275102    2583.0038     8873.814      1712602    48.078302    129.72238    87.024621     119.6425     119.6425     119.6425 
  616000    851.05178    29.693919    2620.0275    8860.0853      1712602    39.675785    85.127916   -35.721945     119.6425     119.6425     119.6425 
  617000    870.18851   -37.147107    2596.4981    8824.6546      1712602   -103.99464    58.410492   -65.857176     119.6425     119.6425     119.6425 
  618000    840.81818   -50.149562    2604.1656     8906.051      1712602   -61.037149   -14.489635   -74.921902     119.6425     119.6425     119.6425 
  619000    860.79367    13.350278    2617.4041    8831.1353      1712602   -107.78618    165.57757   -17.740558     119.6425     119.6425     119.6425 
  620000    880.05731    4.5927109    2498.1978    8890.9071      1712602   -5.5157894   -96.618301    115.91222     119.6425     119.6425     119.6425 
  621000    885.32906    173.00735    2573.5627    8798.8944      1712602    176.24157    181.08439     161.6961     119.6425     119.6425     119.6425 
  622000    858.62789    74.624708    2602.6224    8850.6178      1712602    118.04534    83.634318    22.194468     119.6425     119.6425     119.6425 
  623000     853.3319   -28.654835    2649.0244    8819.7333      1712602    16.178542    7.9519973   -110.09504     119.6425     119.6425     119.6425 
  624000    852.58345    32.638777    2591.2494    8879.1067      1712602    10.223713    35.366814    52.325804     119.6425     119.6425     119.6425 
  625000    861.02653   -54.187597    2550.3262    8893.6154      1712602   -12.535608   -8.4622757   -141.56491     119.6425     119.6425     119.6425 
  626000    871.58608   -59.215422    2619.4243    8791.4938      1712602   -35.346751   -113.63713   -28.662386     119.6425     119.6425     119.6425 
  627000    885.74372   -71.315097    2490.7748    8876.3186      1712602     -133.281   -43.115784   -37.548509     119.6425     119.6425     119.6425 
  628000    859.69462   -87.725191    2676.0004    8770.0597      1712602   -62.997441   -43.041506   -157.13662     119.6425     119.6425     119.6425 
  629000    860.62613   -114.09292    2569.5059    8873.1187      1712602   -175.58588   -81.913141    -84.77975     119.6425     119.6425     119.6425 
  630000    886.09371    125.25531     2568.437     8795.911      1712602    114.11074    132.28707    129.36811     119.6425     119.6425     119.6425 
  631000    873.14409   -41.793624    2552.9842      8850.26      1712602    -51.57061   -39.847998   -33.962264     119.6425     119.6425     119.6425 
  632000    860.23422   -14.056389    2657.7792    8784.3076      1712602   -67.370114    6.1375501    19.063397     119.6425     119.6425     119.6425 
  633000    882.02607   -7.4700417    2573.4336    8801.7137      1712602   -10.324325   -1.4980207   -10.587779     119.6425     119.6425     119.6425 
  634000    858.75686    31.631465    2676.4389    8769.1885      1712602    40.413981    70.690738   -16.210323     119.6425     119.6425     119.6425 
  635000    861.59045   -2.6336808    2610.2423    8826.1699      1712602   -13.948151   -10.446966    16.494074     119.6425     119.6425     119.6425 
  636000    865.86834    40.542909    2614.8894    8807.9477      1712602    65.920437    64.543497   -8.8352069     119.6425     119.6425     119.6425 
  637000    876.05151    10.111332    2557.0567    8834.0715      1712602   -40.795249    66.620233    4.5090128     119.6425     119.6425     119.6425 
  638000    865.64198   -24.768164    2609.3742    8812.8941      1712602    -144.7519    73.866049   -3.4186417     119.6425     119.6425     119.6425 
  639000    853.09279   -22.094412    2662.0674    8797.9275      1712602   -3.0704602   -51.116724   -12.096051     119.6425     119.6425     119.6425 
  640000    842.19774   -9.3427541    2686.2492    8806.4124      1712602    8.5210823   -71.910112    35.360767     119.6425     119.6425     119.6425 
  641000    852.27476    33.566923    2698.8149    8762.4441      1712602    65.306515    19.287945     16.10631     119.6425     119.6425     119.6425 
  642000    864.46833    48.571603    2583.3473    8840.1139      1712602    117.57379    2.5441368    25.596881     119.6425     119.6425     119.6425 
  643000    850.96339    49.471966    2608.8764    8855.2493      1712602   -83.158428    107.41919    124.15513     119.6425     119.6425     119.6425 
  644000    885.62869   -88.914612    2538.8604    8818.7184      1712602    -156.0773   -23.034762   -87.631774     119.6425     119.6425     119.6425 
  645000    861.42078   -83.838421    2587.0415    8843.6428      1712602   -146.03917   -76.898685   -28.577406     119.6425     119.6425     119.6425 
  646000    857.26383   -56.024576    2583.9027    8858.9176      1712602   -31.621623   -96.682579   -39.769524     119.6425     119.6425     119.6425 
  647000    866.67789    66.359473    2620.0785     8793.327      1712602    144.78582   -18.208627    72.501227     119.6425     119.6425     119.6425 
  648000    880.03463     42.68903    2598.0659    8773.9568      1712602   -36.722465    131.39449     33.39507     119.6425     119.6425     119.6425 
  649000    884.01047    12.976458    2580.5033     8778.931      1712602    95.247901   -73.936185     17.61766     119.6425     119.6425     119.6425 
  650000    855.17335   -31.542968    2584.3007    8862.5944      1712602    2.1376614   -43.301108   -53.465458     119.6425     119.6425     119.6425 
  651000    859.24159    44.232637    2575.7493    8857.9297      1712602    58.495682    27.182785    47.019443     119.6425     119.6425     119.6425 
  652000    850.40157   -15.804623     2576.103    8883.8636      1712602    43.596508    -143.2474    52.237018     119.6425     119.6425     119.6425 
  653000    836.05407   -50.670769    2628.3241    8874.9008      1712602   -90.383819   -45.233998   -16.394492     119.6425     119.6425     119.6425 
  654000     842.7671    51.986894    2666.3627    8815.6584      1712602    120.90813    21.932064    13.120491     119.6425     119.6425     119.6425 
  655000    870.79654   -19.689789    2553.3763     8842.383      1712602    64.806559   -56.870749   -67.005176     119.6425     119.6425     119.6425 
  656000    882.77721    32.716874    2509.0695    8849.4161      1712602    83.691144   -60.645514    75.104993     119.6425     119.6425     119.6425 
  657000    880.82686   -45.080396    2492.1509     8871.639      1712602   -81.838379    72.383682   -125.78649     119.6425     119.6425     119.6425 
  658000    880.09603    -65.78969    2570.8552    8794.5178      1712602   -115.84285    53.743201   -135.26942     119.6425     119.6425     119.6425 
  659000    885.36292    105.96291    2539.7298    8808.9353      1712602    112.84826    114.33621    90.704272     119.6425     119.6425     119.6425 
  660000    884.76701   -62.825768    2553.5125    8796.4123      1712602    46.430199   -49.530395   -185.37711     119.6425     119.6425     119.6425 
  661000    889.85102    14.441711    2531.3912    8802.3855      1712602  -0.91966295   -50.708108    94.952904     119.6425     119.6425     119.6425 
  662000     850.2297   -7.4845966     2585.684    8868.4642      1712602   -6.5495279    48.272797   -64.177059     119.6425     119.6425     119.6425 
  663000    843.75938   -68.986742    2571.3309    8901.7898      1712602    -93.48496   -7.6479648    -105.8273     119.6425     119.6425     119.6425 
  664000     894.0891   -35.765266    2407.6399    8911.2498      1712602   -24.343345    -34.27999   -48.672462     119.6425     119.6425     119.6425 
  665000    866.05667    56.412264    2517.9521    8885.8141      1712602    66.079319    85.070541    18.086932     119.6425     119.6425     119.6425 
  666000    847.35207     145.0978    2562.2939    8898.0019      1712602    210.07145    115.12332    110.09862     119.6425     119.6425     119.6425 
  667000    860.84655   -8.0658191    2559.1686    8859.3297      1712602    -26.98129    23.271783   -20.487951     119.6425     119.6425     119.6425 
  668000    900.86806   -3.6176935    2461.1412    8834.4856      1712602    75.632375   -35.646777   -50.838679     119.6425     119.6425     119.6425 
  669000    876.02375   -43.085116    2499.1697     8871.551      1712602   -22.133596    -51.76083   -55.360921     119.6425     119.6425     119.6425 
  670000     866.0708   -62.852209    2477.4263    8923.0471      1712602   -43.022734    -177.5755    32.041609     119.6425     119.6425     119.6425 
  671000    883.89019   -34.098766    2540.7015    8804.8146      1712602   -5.7098962   -85.722759   -10.863644     119.6425     119.6425     119.6425 
  672000    857.07522    42.328836     2546.476    8880.3478      1712602    101.34951    27.741305   -2.1043071     119.6425     119.6425     119.6425 
  673000    860.23804    -25.31658     2638.875    8777.7933      1712602   -2.8715677   -77.189166    4.1109927     119.6425     119.6425     119.6425 
  674000     840.3382    93.911147    2570.8971    8905.8562      1712602    100.15882    33.507181    148.06745     119.6425     119.6425     119.6425 
  675000    872.74201   -23.462391    2493.3719      8883.66      1712602   -3.9618438    2.6463247   -69.071653     119.6425     119.6425     119.6425 
  676000    871.60303     5.175015    2563.6613     8816.263      1712602   -57.191026   -25.497809     98.21388     119.6425     119.6425     119.6425 
  677000    891.91596   -10.388386    2459.8616    8857.3835      1712602    4.4130598   -45.376259    9.7980421     119.6425     119.6425     119.6425 
  678000     873.0345    1.1924319    2500.5613    8873.7373      1712602   -16.584694    88.975378   -68.813389     119.6425     119.6425     119.6425 
  679000    860.81137    -32.64768    2561.1593     8849.931      1712602   -20.226911    5.3600954   -83.076225     119.6425     119.6425     119.6425 
  680000    869.39572   -23.705368    2539.5126    8844.7155      1712602   -41.550593    23.848698   -53.414209     119.6425     119.6425     119.6425 
  681000    866.65141   0.81470102    2579.2133    8812.8352      1712602    47.291346    55.170919   -100.01816     119.6425     119.6425     119.6425 
  682000    865.78423   -152.91842    2605.8139     8788.298      1712602   -151.31627   -158.18924   -149.24976     119.6425     119.6425     119.6425 
  683000    838.62746   -29.742057    2624.1104    8852.2905      1712602   -27.642466   -54.356717   -7.2269894     119.6425     119.6425     119.6425 
  684000    867.17593   -27.425835    2505.3533    8883.3816      1712602    69.958782   -85.258614   -66.977674     119.6425     119.6425     119.6425 
  685000    842.10295   -121.51343    2634.3952    8830.0881      1712602   -101.13214   -133.12843   -130.27973     119.6425     119.6425     119.6425 
  686000    855.80392    27.788553    2555.0948    8867.0206      1712602    18.090826    65.458605  -0.18377268     119.6425     119.6425     119.6425 
  687000    853.94756   -86.878223    2563.2246    8863.9646      1712602   -116.11695   -37.625797   -106.89192     119.6425     119.6425     119.6425 
  688000     872.9038    32.496448     2562.541    8806.1841      1712602   -56.008431    107.51669    45.981085     119.6425     119.6425     119.6425 
  689000    857.77124    34.445972    2587.7813    8826.6565      1712602    33.014114   -16.172414    86.496218     119.6425     119.6425     119.6425 
  690000    853.48257    78.688229    2574.3152    8852.7184      1712602    68.980624    46.467284    120.61678     119.6425     119.6425     119.6425 
  691000    877.79207     11.30018    2529.7144    8822.5684      1712602    -47.48883     39.71267    41.676702     119.6425     119.6425     119.6425 
  692000    878.97361   -70.716564    2498.5838    8849.5491      1712602   -60.590716   -28.397771   -123.16121     119.6425     119.6425     119.6425 
  693000    869.56655     14.36039     2570.867    8805.4297      1712602   -87.744553   -6.4854052    137.31113     119.6425     119.6425     119.6425 
  694000    880.34818   -22.356546    2476.8443    8865.9452      1712602    62.745566   -47.199041   -82.616164     119.6425     119.6425     119.6425 
  695000    843.16132   -19.427826    2666.6773    8788.9102      1712602   -128.68778    30.124376    40.279925     119.6425     119.6425     119.6425 
  696000    859.85813   -57.921834    2589.9833     8814.056      1712602   -45.151062   -92.038265   -36.576175     119.6425     119.6425     119.6425 
  697000    877.99825   -2.8019014    2497.8746    8850.1898      1712602   -1.9658866    98.449424   -104.88924     119.6425     119.6425     119.6425 
  698000    865.02769     6.098158    2493.3556    8893.5797      1712602   -13.130431   -3.1511933    34.576098     119.6425     119.6425     119.6425 
  699000    867.05021    34.392844    2550.8208    8829.3214      1712602    126.72707    55.617355   -79.165896     119.6425     119.6425     119.6425 
  700000    828.43416    75.313054    2566.1869    8931.3473      1712602    54.740561    165.54399    5.6546107     119.6425     119.6425     119.6425 
  701000    870.43556    40.373868    2556.2872    8812.5387      1712602    52.030546    74.703616    -5.612557     119.6425     119.6425     119.6425 
  702000    856.67913    -75.59359     2534.835    8875.4127      1712602   -119.75042   -25.251108   -81.779239     119.6425     119.6425     119.6425 
  703000    856.67702     43.51617    2512.8624    8896.7545      1712602    94.428695    13.609236    22.510579     119.6425     119.6425     119.6425 
  704000     866.4186   -24.357839    2507.4924    8871.8555      1712602    -40.66232   -118.02837    85.617177     119.6425     119.6425     119.6425 
  705000    871.04319    39.100548    2541.0391     8823.499      1712602    9.1946104     63.04573    45.061305     119.6425     119.6425     119.6425 
  706000    871.01369   -72.125126    2482.5106    8881.6328      1712602   -188.74311    87.932938   -115.56521     119.6425     119.6425     119.6425 
  707000    886.48239    17.731282    2481.1064    8835.2462      1712602      29.2184    42.221662   -18.246215     119.6425     119.6425     119.6425 
  708000    884.83873    5.6652876    2519.1294    8801.6947      1712602     47.44453   -64.009722    33.561055     119.6425     119.6425     119.6425 
  709000    845.10037   -51.559967    2585.0637    8856.5103      1712602   -6.1994591   -74.832823   -73.647618     119.6425     119.6425     119.6425 
  710000     869.9643    2.4845859    2566.0755    8798.9733      1712602    21.714217   -39.721309    25.460849     119.6425     119.6425     119.6425 
  711000    851.92835    79.087933    2597.7183    8821.7587      1712602   -6.2652748    79.599432    163.92964     119.6425     119.6425     119.6425 
  712000    833.20255   -42.243596    2611.1837    8864.6847      1712602   -45.763172    24.745508   -105.71312     119.6425     119.6425     119.6425 
  713000    855.86258   -16.612833    2534.8105    8871.4183      1712602   -56.762235    44.141072   -37.217337     119.6425     119.6425     119.6425 
  714000    848.12988   -21.979826    2612.3251    8816.8036      1712602   -46.220384   -17.803095   -1.9160006     119.6425     119.6425     119.6425 
  715000    842.14097    79.459786    2652.8338    8794.0164      1712602    98.505542    72.773694    67.100122     119.6425     119.6425     119.6425 
  716000    848.17699   -65.320509    2594.6555         8833      1712602   -86.508642    -102.5099   -6.9429828     119.6425     119.6425     119.6425 
  717000    843.26241    119.30865    2685.2866    8756.8608      1712602    75.550237    128.24951    154.12621     119.6425     119.6425     119.6425 
  718000    836.96374   -0.4731218    2667.9499    8792.9789      1712602   -5.8103041    42.973746   -38.582807     119.6425     119.6425     119.6425 
  719000    832.01756   -54.896827    2690.2197    8785.3021      1712602    -32.32087   -53.216891   -79.152721     119.6425     119.6425     119.6425 
  720000    825.30542    22.454881    2689.3776    8806.1114      1712602     100.5832   -77.455603     44.23705     119.6425     119.6425     119.6425 
  721000     822.0997   -80.913933    2683.7754    8820.9395      1712602   -78.271112   -86.565013   -77.905674     119.6425     119.6425     119.6425 
  722000    859.66864    114.69529    2592.6011    8796.9547      1712602      186.396    103.52283    54.167036     119.6425     119.6425     119.6425 
  723000    844.53712   -76.421701    2532.1734    8903.1045      1712602    5.2303055   -57.524528   -176.97088     119.6425     119.6425     119.6425 
  724000    841.02878    -100.4813    2609.8633    8835.6044      1712602   -79.793697    -93.36226   -128.28794     119.6425     119.6425     119.6425 
  725000     854.5756   -29.263541    2571.8731     8831.643      1712602    26.033313   -106.00672   -7.8172169     119.6425     119.6425     119.6425 
  726000    843.43551    76.262171    2559.4818    8877.3911      1712602    99.047935   -59.696726     189.4353     119.6425     119.6425     119.6425 
  727000    817.82516    17.260747    2634.6448    8879.8802      1712602    60.196253    5.2468053   -13.660817     119.6425     119.6425     119.6425 
  728000    840.24694    29.088951    2616.7562     8828.711      1712602     79.45711    24.530297   -16.720553     119.6425     119.6425     119.6425 
  729000    856.59049    2.8357925    2649.7088    8745.2758      1712602   -6.6209067   -34.552094    49.680378     119.6425     119.6425     119.6425 
  730000    863.75566    31.360039    2546.5044    8826.1249      1712602    24.156956    85.142797   -15.219636     119.6425     119.6425     119.6425 
  731000    837.72946   -65.439674    2534.2924    8917.1945      1712602   -21.250718   -29.819782   -145.24852     119.6425     119.6425     119.6425 
  732000    869.93773    35.878961    2547.9356    8804.6205      1712602    71.863904    66.837714   -31.064736     119.6425     119.6425     119.6425 
  733000    842.85647   -57.388412    2632.2838    8802.2799      1712602    -96.89393   -117.09786    41.826552     119.6425     119.6425     119.6425 
  734000    835.55769    51.140235    2648.3486    8807.9739      1712602   -39.107357    69.279441    123.24862     119.6425     119.6425     119.6425 
  735000    859.28046    -26.40254    2584.7951    8798.4528      1712602   -19.135193   -83.266778    23.194351     119.6425     119.6425     119.6425 
  736000    845.50263   -29.077251    2565.6689    8859.0834      1712602   -52.121974    55.771613   -90.881393     119.6425     119.6425     119.6425 
  737000    843.34075    77.898811    2558.6448    8872.2755      1712602    74.183978    80.443023    79.069432     119.6425     119.6425     119.6425 
  738000    833.90883    15.063178    2578.5131    8880.6206      1712602    26.499202  -0.61029827    19.300631     119.6425     119.6425     119.6425 
  739000    825.28563   -46.583219    2654.3876     8830.505      1712602   -82.630037   -65.084169     7.964549     119.6425     119.6425     119.6425 
  740000    881.90706   -43.075433    2450.7512     8860.723      1712602   -40.228944   -97.390503    8.3931467     119.6425     119.6425     119.6425 
  741000    882.49246   -10.669564    2433.7776    8875.2425      1712602    -81.38255   -6.5599504    55.933807     119.6425     119.6425     119.6425 
  742000    854.68823   -19.392266    2547.8258    8845.4784      1712602      41.5172   -39.821653   -59.872345     119.6425     119.6425     119.6425 
  743000    856.65919    136.47907    2571.7762     8814.856      1712602    134.40119     126.2273    148.80873     119.6425     119.6425     119.6425 
  744000     858.9337    83.159988    2537.2227      8841.75      1712602     57.22487    38.361413    153.89368     119.6425     119.6425     119.6425 
  745000    891.80543   -73.153354    2421.0427    8856.8132      1712602   -65.176443    19.231766   -173.51538     119.6425     119.6425     119.6425 
  746000     846.4575    29.171738    2493.1932    8922.5161      1712602    95.830671   -12.232223    3.9167672     119.6425     119.6425     119.6425 
  747000    892.86591   -18.797903    2368.3008    8905.1682      1712602    18.584184   -12.934811   -62.043082     119.6425     119.6425     119.6425 
  748000    878.85731   -57.665187    2450.6158     8864.967      1712602   -168.14334   -27.294048    22.441823     119.6425     119.6425     119.6425 
  749000     842.6128    -131.0062    2559.5908    8866.1674      1712602   -187.51972   -134.43413   -71.064762     119.6425     119.6425     119.6425 
  750000    854.51345    12.700187    2598.8439    8789.9873      1712602    23.164092   -40.893691     55.83016     119.6425     119.6425     119.6425 
  751000    844.18946    82.414113    2576.9629    8842.5586      1712602    110.31067  0.076063273    136.85561     119.6425     119.6425     119.6425 
  752000    871.26999    59.000177    2540.9329    8795.3853      1712602    63.601225   -5.8286289    119.22793     119.6425     119.6425     119.6425 
  753000    860.58833   -55.216311    2501.2647    8867.1208      1712602    48.623904   -90.269463   -124.00337     119.6425     119.6425     119.6425 
  754000    852.53311   -110.62257    2594.4327    8797.8916      1712602     -96.2187   -49.397049   -186.25196     119.6425     119.6425     119.6425 
  755000    855.04467    42.613031    2529.1848    8854.7725      1712602    58.594838    188.45823   -119.21397     119.6425     119.6425     119.6425 
  756000    856.20332    12.592056    2574.1416    8805.6849      1712602    82.163686   -26.848443   -17.539074     119.6425     119.6425     119.6425 
  757000    824.54045   -13.220946     2628.263    8847.7415      1712602    21.267514   -85.942377    25.012027     119.6425     119.6425     119.6425 
  758000    858.85466   -9.1231019    2443.0616    8927.6619      1712602   -68.554087    7.6604068    33.524375     119.6425     119.6425     119.6425 
  759000    868.09972     69.06217    2490.5541    8851.3517      1712602    63.184372     42.94418    101.05796     119.6425     119.6425     119.6425 
  760000    791.93566   -77.751966    2708.6442    8865.1877      1712602   -97.226577   -62.400475   -73.628846     119.6425     119.6425     119.6425 
  761000    813.72524    46.757921    2714.3387    8792.3003      1712602    122.25852    14.789193    3.2260511     119.6425     119.6425     119.6425 
  762000    836.90536    55.269132    2718.1351    8717.3382      1712602    55.388157    8.6101378     101.8091     119.6425     119.6425     119.6425 
  763000    818.92793   -7.7575896    2652.7854    8836.9645      1712602   -45.794942   -93.636704    116.15888     119.6425     119.6425     119.6425 
  764000    834.64063  -0.89917272    2577.7145    8863.4578      1712602    69.751111   -37.142319   -35.306309     119.6425     119.6425     119.6425 
  765000    830.84816    80.852589    2590.4115    8861.8645      1712602    106.89973    131.04976    4.6082757     119.6425     119.6425     119.6425 
  766000    862.61631    12.500265    2523.4609    8831.3104      1712602    5.3849671    45.692858   -13.577032     119.6425     119.6425     119.6425 
  767000    846.31967   -23.435707    2545.4702    8858.5947      1712602   -76.295958    115.40254    -109.4137     119.6425     119.6425     119.6425 
  768000    855.29609    13.344151    2527.8517    8848.3653      1712602    51.292478   -6.5600262    -4.699999     119.6425     119.6425     119.6425 
  769000    862.05069    23.167304    2537.5653    8817.3421      1712602     71.05698   0.88256849   -2.4376352     119.6425     119.6425     119.6425 
  770000    841.44092   -25.918946    2560.8837    8856.4183      1712602   -127.55614    43.920192    5.8791092     119.6425     119.6425     119.6425 
  771000    844.13956   -94.139698     2560.564     8848.002      1712602   -77.570325   -167.95937   -36.889395     119.6425     119.6425     119.6425 
  772000    867.91555   -20.571268     2548.882    8786.3474      1712602  -0.94400806   -3.1335646    -57.63623     119.6425     119.6425     119.6425 
  773000    842.65968    23.562023       2580.9    8830.8454      1712602   -14.520624    65.034181    20.172512     119.6425     119.6425     119.6425 
  774000    858.99683    82.998627    2578.6481    8782.7267      1712602   -4.2582528    133.87506    119.37907     119.6425     119.6425     119.6425 
  775000    847.85056    8.6298013    2571.2838    8823.5017      1712602   -34.400076    36.318277    23.971203     119.6425     119.6425     119.6425 
  776000     861.5603    110.45206    2551.0848    8801.2523      1712602    205.93615    57.158228     68.26182     119.6425     119.6425     119.6425 
  777000    861.41421   -10.788469    2523.5484     8828.739      1712602   -13.388046   -66.095691     47.11833     119.6425     119.6425     119.6425 
  778000    864.12753    66.814284    2493.7382    8849.3275      1712602    16.988353    47.869647    135.58485     119.6425     119.6425     119.6425 
  779000    881.22992   -78.981316    2476.5671    8813.5583      1712602    -72.90955   -133.74904   -30.285362     119.6425     119.6425     119.6425 
  780000    839.23536    -55.99898    2597.1296    8820.4789      1712602    9.7495741    10.625986    -188.3725     119.6425     119.6425     119.6425 
  781000    851.12934    6.9364574    2627.1284    8753.5932      1712602     29.17847   -24.725315    16.356217     119.6425     119.6425     119.6425 
  782000    847.82752   -3.9764563    2579.3114    8810.8773      1712602    55.760104   -104.26196    36.572492     119.6425     119.6425     119.6425 
  783000     821.9457   -36.341698    2652.7513    8815.6823      1712602   -92.302697   -15.643191   -1.0792068     119.6425     119.6425     119.6425 
  784000    827.09763   -36.415678    2549.1431    8902.8826      1712602   -39.514058    2.2568054   -71.989781     119.6425     119.6425     119.6425 
  785000    845.40924   -47.534402    2572.8473     8822.498      1712602    3.7456022   -45.094119   -101.25469     119.6425     119.6425     119.6425 
  786000    837.29625    5.1588524    2548.1537    8871.5436      1712602   -85.504016   -43.382765    144.36334     119.6425     119.6425     119.6425 
  787000    823.87856   -28.463164    2611.6792    8848.2348      1712602   -33.588575   -27.695304   -24.105611     119.6425     119.6425     119.6425 
  788000    850.97165    10.661661    2561.9229    8814.5273      1712602    12.642323   -73.765587    93.108247     119.6425     119.6425     119.6425 
  789000    833.86944    49.108395    2665.5899    8762.4296      1712602    113.39421   -13.881851    47.812823     119.6425     119.6425     119.6425 
  790000    845.60752    53.894246    2586.7434    8804.8854      1712602    58.148355    88.039394    15.494989     119.6425     119.6425     119.6425 
  791000    847.52477    42.700535    2570.8746    8814.3376      1712602    31.526588   -21.866982      118.442     119.6425     119.6425     119.6425 
  792000    826.25465     55.84684    2635.2544    8814.1403      1712602    36.224399   -29.472523    160.78864     119.6425     119.6425     119.6425 
  793000    847.85811    65.670589     2599.452    8783.2061      1712602    128.65903    3.2726305    65.080105     119.6425     119.6425     119.6425 
  794000    846.56929   -35.796948    2523.9565    8862.0706      1712602   -52.770585    5.2881655   -59.908424     119.6425     119.6425     119.6425 
  795000    850.70462   -33.986694    2578.8631    8793.8624      1712602   -94.268818    50.704389   -58.395653     119.6425     119.6425     119.6425 
  796000    853.80493     102.1212    2520.4171    8842.2967      1712602    116.94165    13.275579    176.14637     119.6425     119.6425     119.6425 
  797000    839.27999    18.525845    2574.4769    8832.0191      1712602   -25.094871    35.120042    45.552363     119.6425     119.6425     119.6425 
  798000    832.92424   -16.756333    2606.2913    8819.0515      1712602    18.854405    9.0923687   -78.215773     119.6425     119.6425     119.6425 
  799000    862.18339    79.563946    2485.1284    8850.3431      1712602    150.86917   -17.181902    105.00457     119.6425     119.6425     119.6425 
  800000    845.03155    131.66654    2587.5751    8799.5119      1712602    10.443842    105.11558     279.4402     119.6425     119.6425     119.6425 
  801000     844.8323      89.5779    2511.9523    8874.8878      1712602    42.892388    95.554003    130.28731     119.6425     119.6425     119.6425 
  802000    860.31322   -101.41168    2487.1178     8851.742      1712602   -89.111555   -44.780187   -170.34329     119.6425     119.6425     119.6425 
  803000    847.33449   -158.76085    2537.1328    8840.7695      1712602   -238.93041   -60.504416   -176.84774     119.6425     119.6425     119.6425 
  804000    833.66244   -61.032684    2638.8498    8780.1155      1712602   -58.903935   -19.217787   -104.97633     119.6425     119.6425     119.6425 
  805000    812.12356    27.806083    2626.7953    8857.3015      1712602    89.311133     17.36839   -23.261274     119.6425     119.6425     119.6425 
  806000    825.66089   -27.096932    2553.1781    8888.9363      1712602     22.57434   -64.349106   -39.516031     119.6425     119.6425     119.6425 
  807000    862.94428     16.23786    2494.2456    8833.4771      1712602   -18.846343    124.71739   -57.157466     119.6425     119.6425     119.6425 
  808000    862.65049    16.986229    2483.2056    8844.8235      1712602   -23.002461    60.531696    13.429453     119.6425     119.6425     119.6425 
  809000    872.46153   -49.277319    2434.2467    8863.2168      1712602   -56.807632   -34.305019   -56.719305     119.6425     119.6425     119.6425 
  810000    868.53778   -50.998517    2440.6422    8868.1311      1712602   -173.81529    -62.04499    82.864728     119.6425     119.6425     119.6425 
  811000    837.65873    -64.06032    2626.1472    8776.2845      1712602   -16.155555   -37.405121   -138.62029     119.6425     119.6425     119.6425 
  812000    825.10125   -9.6472883    2606.6329    8833.5215      1712602      7.29003    24.523573   -60.755468     119.6425     119.6425     119.6425 
  813000    846.93082    68.388458    2551.9098    8820.9694      1712602    21.422737    110.47852    73.264116     119.6425     119.6425     119.6425 
  814000    856.90761     -36.9442     2463.977    8877.9733      1712602   -41.486269    96.655818   -166.00215     119.6425     119.6425     119.6425 
  815000    828.90831   -87.539225    2539.6793     8887.215      1712602   -100.78945 -0.051793915   -161.77643     119.6425     119.6425     119.6425 
  816000      864.601   -55.540658    2499.4265    8817.9536      1712602   -76.982875   -44.244269   -45.394832     119.6425     119.6425     119.6425 
  817000    853.50311    22.192439    2513.5226    8837.0144      1712602     29.68969   -38.219149    75.106775     119.6425     119.6425     119.6425 
  818000    845.56969    77.512483     2557.904    8816.2387      1712602    133.85188   -40.601632     139.2872     119.6425     119.6425     119.6425 
  819000    854.55988    49.615864    2560.7066    8785.5064      1712602    53.533023   -15.503097    110.81767     119.6425     119.6425     119.6425 
  820000    838.45075   -36.877376    2532.0919      8862.79      1712602   -55.306447   -25.268217   -30.057464     119.6425     119.6425     119.6425 
  821000    834.16153    9.9720211     2516.249    8891.0474      1712602   -97.565031    81.479998    46.001097     119.6425     119.6425     119.6425 
  822000    842.25988   -61.013127    2547.3053    8834.5417      1712602     6.917392   -106.06603   -83.890741     119.6425     119.6425     119.6425 
  823000    839.65683    15.334228    2601.9097    8787.3836      1712602   -16.504693    10.402658    52.104718     119.6425     119.6425     119.6425 
  824000    860.17392   -68.442263    2451.5131     8874.568      1712602   -30.538641   -71.796589   -102.99156     119.6425     119.6425     119.6425 
  825000    826.61658    24.024787    2592.4717    8835.3191      1712602   -53.641531    116.55301    9.1628762     119.6425     119.6425     119.6425 
  826000    836.46854   -5.6722881    2525.8965    8871.3261      1712602   -25.694812    18.033011   -9.3550632     119.6425     119.6425     119.6425 
  827000    845.41492   -124.39702    2552.0291     8817.245      1712602   -168.20361   -23.293897   -181.69356     119.6425     119.6425     119.6425 
  828000    828.35201   -73.643126    2576.2003    8844.5183      1712602   -101.50794     -100.258   -19.163443     119.6425     119.6425     119.6425 
  829000    850.52853    22.826157    2548.9138    8803.4011      1712602   -56.401665    65.284457    59.595679     119.6425     119.6425     119.6425 
  830000     844.1984    114.21418    2504.3018    8866.7298      1712602    175.89499    60.950066    105.79749     119.6425     119.6425     119.6425 
  831000     873.7073   -18.673309    2476.7847    8803.4925      1712602    36.033042    4.2816515    -96.33462     119.6425     119.6425     119.6425 
  832000    848.47541   -8.8650152    2546.0939    8810.6718      1712602    15.865919   -96.158971    53.698007     119.6425     119.6425     119.6425 
  833000    880.73926    45.137476     2522.825    8734.9263      1712602    168.89161    20.894257    -54.37344     119.6425     119.6425     119.6425 
  834000    846.06252   -40.721373    2517.4662     8845.366      1712602    -55.12275   -28.457247   -38.584122     119.6425     119.6425     119.6425 
  835000    840.30164   -117.76923     2515.495    8864.4185      1712602   -107.87614   -104.91808   -140.51347     119.6425     119.6425     119.6425 
  836000    865.17271    121.14083    2553.0852    8750.1834      1712602    75.880689    110.48492    177.05687     119.6425     119.6425     119.6425 
  837000    833.68243    -24.40964    2586.5617    8812.3583      1712602    9.8065976   -46.296113   -36.739404     119.6425     119.6425     119.6425 
  838000    815.89155   -28.979979    2620.7233    8832.0233      1712602   -56.443108    3.8696883   -34.366518     119.6425     119.6425     119.6425 
  839000    800.38681    4.6635543    2646.7577    8852.7879      1712602    5.4465868    80.401052   -71.856976     119.6425     119.6425     119.6425 
  840000    850.45402    41.991277    2544.5273    8801.6821      1712602    133.14943   -45.348442    38.172846     119.6425     119.6425     119.6425 
  841000    832.19531   -111.61968    2542.9643    8858.4277      1712602   -224.50303   -44.822275   -65.533748     119.6425     119.6425     119.6425 
  842000     841.4565    135.06889     2565.315    8807.2989      1712602    108.60905    121.66688    174.93074     119.6425     119.6425     119.6425 
  843000     828.0121   -93.423283    2562.1164    8851.0621      1712602   -68.138146   -92.567877   -119.56383     119.6425     119.6425     119.6425 
  844000    833.04929    102.64197    2611.1485    8786.1392      1712602    55.338223    92.055046    160.53263     119.6425     119.6425     119.6425 
  845000    836.25377   -39.792365    2514.6663    8872.4079      1712602    -140.0827    -67.39959    88.105193     119.6425     119.6425     119.6425 
  846000    833.19701   -76.652106    2603.1737    8792.6468      1712602   -109.07881   -20.845271   -100.03224     119.6425     119.6425     119.6425 
  847000    837.08879   -53.037719    2559.2547    8824.0549      1712602    21.242836   -71.218514   -109.13748     119.6425     119.6425     119.6425 
  848000    823.86092   -16.288542    2529.4414    8893.7591      1712602   -46.914545    20.229974   -22.181055     119.6425     119.6425     119.6425 
  849000    845.98325    41.258498    2546.1123    8809.0747      1712602    38.605086    68.622357    16.548051     119.6425     119.6425     119.6425 
  850000    815.14949   -10.941146    2596.1766    8852.6039      1712602   -95.649188    42.119621    20.706128     119.6425     119.6425     119.6425 
  851000    832.44022   -4.1376952    2494.4824    8901.0122      1712602    45.563421   -121.50929    63.532779     119.6425     119.6425     119.6425 
  852000    860.18781   -42.945438    2469.5074    8840.5793      1712602   -27.569695   -113.17598    11.909363     119.6425     119.6425     119.6425 
  853000    865.04942   -49.651053    2505.8047    8788.9448      1712602   -18.698419   -134.78806     4.533316     119.6425     119.6425     119.6425 
  854000    848.15609   -65.657982    2506.2055     8839.497      1712602   -101.53439   -8.5805831   -86.858977     119.6425     119.6425     119.6425 
  855000    854.40235   -3.9627354    2492.6459    8833.3497      1712602    25.339777    41.177457   -78.405439     119.6425     119.6425     119.6425 
  856000    826.27355    25.655449    2554.1904    8857.0307      1712602    70.290771    2.9638688    3.7117068     119.6425     119.6425     119.6425 
  857000    845.22364   -54.177342    2509.8485    8843.0777      1712602   -78.339201      11.3354   -95.528224     119.6425     119.6425     119.6425 
  858000    841.96507    12.530781    2531.2572     8831.151      1712602    165.10195   -40.413603      -87.096     119.6425     119.6425     119.6425 
  859000    855.97852   -30.396294    2484.7844    8834.2921      1712602   -37.094094   -9.5972016   -44.497587     119.6425     119.6425     119.6425 
  860000    855.32117   -46.583719     2482.885    8837.4802      1712602   -111.06038    35.869473   -64.560246     119.6425     119.6425     119.6425 
  861000    806.44334   -11.978646     2593.719    8875.3112      1712602    -17.29069   -3.3068188   -15.338429     119.6425     119.6425     119.6425 
  862000    830.00464    89.306862    2560.9954    8835.4274      1712602    48.473686      130.713    88.733898     119.6425     119.6425     119.6425 
  863000    819.44012    9.7850912    2624.8634    8803.2455      1712602   -26.878498     61.56175   -5.3279775     119.6425     119.6425     119.6425 
  864000    843.63701   -36.592386    2524.8685    8828.8417      1712602   -25.207353   -59.434664   -25.135142     119.6425     119.6425     119.6425 
  865000     831.1847    23.622245    2528.8259    8862.3561      1712602    36.394603   -8.0033725    42.475506     119.6425     119.6425     119.6425 
  866000    836.95603     18.82398    2465.3373    8907.6866      1712602    18.137902    32.960277    5.3737614     119.6425     119.6425     119.6425 
  867000    839.00099   -30.602283    2521.0631     8845.102      1712602   -26.551921    55.163758   -120.41869     119.6425     119.6425     119.6425 
  868000    854.82448   -53.224007    2528.4136    8788.8651      1712602   -47.897592   -149.57163      37.7972     119.6425     119.6425     119.6425 
  869000    846.19876    7.3283183    2486.5911    8856.3823      1712602    57.197843    5.4773996   -40.690288     119.6425     119.6425     119.6425 
  870000    860.94387   -42.854553    2456.5102    8840.8235      1712602   0.30851772   -77.141335    -51.73084     119.6425     119.6425     119.6425 
  871000    852.24249   -13.874603    2462.4138    8860.9632      1712602   -37.896143    36.721329   -40.448993     119.6425     119.6425     119.6425 
  872000    864.55959   -4.9812573    2492.6268    8792.5629      1712602    -2.333916    38.000598   -50.610454     119.6425     119.6425     119.6425 
  873000    855.28045   -29.777492    2478.5591    8834.3944      1712602   -24.078045   -77.505306    12.250875     119.6425     119.6425     119.6425 
  874000    865.25873    18.917387     2441.719    8840.2792      1712602    66.190217   -12.384709    2.9466522     119.6425     119.6425     119.6425 
  875000    846.03813   -21.434037    2487.8279    8852.3588      1712602   0.23151612   -89.429744    24.896117     119.6425     119.6425     119.6425 
  876000    844.80488    8.7489826    2547.0104    8796.2834      1712602   -2.7142487     18.97055     9.990646     119.6425     119.6425     119.6425 
  877000    849.95249    -15.83175    2537.9584    8788.9908      1712602   -80.783411   -10.123511    43.411674     119.6425     119.6425     119.6425 
  878000    861.20513    22.698577    2530.2836    8761.7335      1712602   -74.778549    31.308439    111.56584     119.6425     119.6425     119.6425 
  879000    841.33388   -99.406937    2520.5588    8831.4115      1712602   -128.93562   -68.541946   -100.74325     119.6425     119.6425     119.6425 
  880000    835.84736     2.725125    2570.8736    8797.3144      1712602    28.317558    20.763462   -40.905644     119.6425     119.6425     119.6425 
  881000    810.83031    71.704391    2615.9173    8827.9443      1712602   -37.751241    132.32383    120.54059     119.6425     119.6425     119.6425 
  882000    838.33913   -74.939686    2528.6579    8830.7079      1712602   -113.28375   -32.819827   -78.715484     119.6425     119.6425     119.6425 
  883000    805.35261   -111.07099    2582.5393    8876.8722      1712602    -145.9851   -126.07697   -61.150899     119.6425     119.6425     119.6425 
  884000    843.55003    20.300895    2563.4818    8778.6043      1712602     39.69453   -11.962767    33.170922     119.6425     119.6425     119.6425 
  885000    836.72403      45.5886    2584.4283    8777.7076      1712602    70.469199   -43.330041    109.62664     119.6425     119.6425     119.6425 
  886000    843.62521    43.588219    2576.7348    8763.7923      1712602    32.228242   -24.124032    122.66045     119.6425     119.6425     119.6425 
  887000    843.39091    55.382323    2547.9974    8792.5999      1712602   -54.030174    54.393227    165.78392     119.6425     119.6425     119.6425 
  888000    821.15443    18.531132    2512.6777    8895.2218      1712602     77.41234    6.8432418   -28.662187     119.6425     119.6425     119.6425 
  889000    847.69277     32.91428    2448.7663    8877.6062      1712602    40.549665    29.068793    29.124381     119.6425     119.6425     119.6425 
  890000    828.95324    -68.62136    2521.6999    8861.1882      1712602   -25.126578   -70.715466   -110.02204     119.6425     119.6425     119.6425 
  891000    830.74603    41.453541    2594.9977    8781.9017      1712602    56.014605    12.367272    55.978746     119.6425     119.6425     119.6425 
  892000    844.21938  0.082618031    2540.6224    8794.4376      1712602    45.391232   -47.467791    2.3244134     119.6425     119.6425     119.6425 
  893000    849.81158   -91.831117    2528.3299     8788.954      1712602    1.1485473   -130.34175   -146.30015     119.6425     119.6425     119.6425 
  894000    824.13742   -15.814765    2537.1798    8857.9204      1712602    31.482638   -20.913183   -58.013749     119.6425     119.6425     119.6425 
  895000    851.07214   -19.501089    2456.9054    8855.3334      1712602     40.06413    29.019064   -127.58646     119.6425     119.6425     119.6425 
  896000    854.50312     98.80609    2506.4976    8794.7989      1712602    25.580777    178.72401    92.113487     119.6425     119.6425     119.6425 
  897000    838.98106   -111.68512    2534.3781    8813.5705      1712602   -135.84457   -107.99425   -91.216532     119.6425     119.6425     119.6425 
  898000    863.59784   -51.525713    2474.2192    8798.0167      1712602   -12.891519   -22.396185   -119.28943     119.6425     119.6425     119.6425 
  899000    821.01954   -9.7803317    2552.9393    8848.6316      1712602   -7.5397851   -39.520794    17.719584     119.6425     119.6425     119.6425 
  900000    862.72826   -12.768296    2432.5659    8840.9706      1712602    34.269752   -58.458909    -14.11573     119.6425     119.6425     119.6425 
  901000     830.3878   -7.9069322    2480.7966    8890.8979      1712602     28.18557    -1.516191   -50.390175     119.6425     119.6425     119.6425 
  902000    855.72759    34.970476    2489.5825    8804.2196      1712602    48.867957    103.95093   -47.907461     119.6425     119.6425     119.6425 
  903000    813.98316   -36.440958       2612.5    8808.1267      1712602   -10.351775   -31.447189   -67.523909     119.6425     119.6425     119.6425 
  904000    812.92886    0.2826016    2594.6015    8828.5846      1712602  -0.54939611   -61.426878    62.824079     119.6425     119.6425     119.6425 
  905000    842.79313    181.22832    2568.8753    8762.5094      1712602    138.33809    121.44284    283.90402     119.6425     119.6425     119.6425 
  906000     827.4246    37.870829    2553.5346    8824.2295      1712602    65.369781    85.668153   -37.425447     119.6425     119.6425     119.6425 
  907000    826.94047   -33.751283    2555.8199    8822.8099      1712602    8.2907568    -80.51609   -29.028515     119.6425     119.6425     119.6425 
  908000    810.09545    19.831451     2566.716    8862.8177      1712602    9.4146939    114.99296   -64.913305     119.6425     119.6425     119.6425 
  909000    845.58313   -159.89996    2524.1341    8796.2893      1712602   -257.17352   -28.413847    -194.1125     119.6425     119.6425     119.6425 
  910000    841.09474   -138.32688    2520.0072    8813.2983      1712602   -214.81623   -121.45659   -78.707815     119.6425     119.6425     119.6425 
  911000    816.64823    20.230812    2620.9367    8786.3976      1712602    10.563493    52.166655   -2.0377129     119.6425     119.6425     119.6425 
  912000    855.13927     55.21659    2467.2534    8821.9871      1712602    75.697806    52.617004     37.33496     119.6425     119.6425     119.6425 
  913000    840.24239    69.984663    2550.2969    8783.8421      1712602    127.68105    48.340859    33.932082     119.6425     119.6425     119.6425 
  914000    831.32743   -19.497155    2492.1986    8868.5611      1712602    43.693508   -50.096023    -52.08895     119.6425     119.6425     119.6425 
  915000    857.24673   -58.522823     2384.857    8896.1816      1712602   -68.033371    22.639947   -130.17504     119.6425     119.6425     119.6425 
  916000    840.71429   -115.35738    2529.5249    8801.2883      1712602   -164.22456   -44.543496   -137.30407     119.6425     119.6425     119.6425 
  917000    867.15644   -11.179871    2489.9226    8759.5899      1712602   -42.547888   -36.156501    45.164777     119.6425     119.6425     119.6425 
  918000    865.37283    11.904205    2438.2958    8816.1476      1712602    143.81661   -154.91713    46.813135     119.6425     119.6425     119.6425 
  919000    821.54337    -68.88437    2542.8782    8844.7025      1712602    -105.3735   -119.54275    18.263134     119.6425     119.6425     119.6425 
  920000    865.33805    57.172009    2423.8554     8829.434      1712602    61.507318    61.968462    48.040247     119.6425     119.6425     119.6425 
  921000    815.84984    -101.3334     2567.965    8835.8289      1712602   -133.89173    6.3104336   -176.41892     119.6425     119.6425     119.6425 
  922000    833.06494   -64.547236    2544.9178    8805.7923      1712602   -104.80926    5.7457059   -94.578155     119.6425     119.6425     119.6425 
  923000    839.30227   -33.910902    2541.0739    8790.1218      1712602   -114.50529   -27.011221    39.783805     119.6425     119.6425     119.6425 
  924000    835.34839     40.25557    2543.9855    8798.7335      1712602    113.68477      5.47941    1.6025266     119.6425     119.6425     119.6425 
  925000    837.63097   -43.695229    2485.1363    8849.9789      1712602   -10.115393   -98.442353   -22.527941     119.6425     119.6425     119.6425 
  926000    847.39004     11.82212    2491.9811    8812.7968      1712602   -2.9203484   -7.7140193    46.100726     119.6425     119.6425     119.6425 
  927000    841.61205   -15.501717    2539.7253    8782.1972      1712602   -43.084869   -42.692728    39.272448     119.6425     119.6425     119.6425 
  928000     835.6155    -55.11358    2505.1097    8834.4448      1712602   -86.387821   -53.244765   -25.708155     119.6425     119.6425     119.6425 
  929000     844.5392   0.31400099    2516.1955    8795.5937      1712602   -84.199521    32.923953    52.217571     119.6425     119.6425     119.6425 
  930000    825.91955    37.244253    2509.9857    8858.0166      1712602    19.664681    105.14605   -13.077972     119.6425     119.6425     119.6425 
  931000    816.30454   -94.863334    2525.0208    8871.7523      1712602   -126.86158   -28.027339   -129.70108     119.6425     119.6425     119.6425 
  932000    828.66194    7.2409536    2611.4041    8747.1879      1712602   -4.8883021    -33.46712    60.078283     119.6425     119.6425     119.6425 
  933000    840.78619   -76.565473    2499.8252    8821.2467      1712602   -51.060779   -16.708627   -161.92701     119.6425     119.6425     119.6425 
  934000    855.71484   -3.6013815    2507.8504    8767.0425      1712602   -90.280131    96.477931   -17.001944     119.6425     119.6425     119.6425 
  935000    833.90686   -49.280566    2431.9015    8908.9045      1712602   -31.932354   -9.0017871   -106.90756     119.6425     119.6425     119.6425 
  936000    820.87871    10.867895    2477.3652    8902.6312      1712602    47.038428    15.473062   -29.907804     119.6425     119.6425     119.6425 
  937000    838.23865   -61.114188    2548.5486    8777.9329      1712602     36.02257   -98.877269   -120.48786     119.6425     119.6425     119.6425 
  938000    843.37694   -33.553533    2380.9477    8929.4515      1712602    56.773485   -113.81119   -43.622888     119.6425     119.6425     119.6425 
  939000      826.706   -22.504843    2545.8981    8814.7634      1712602   -45.815462    88.670902   -110.36997     119.6425     119.6425     119.6425 
  940000     840.4126   -110.63182    2433.3154    8884.7845      1712602   -97.983615   -57.640668   -176.27117     119.6425     119.6425     119.6425 
  941000    840.01233    108.98803    2459.7299    8858.8297      1712602    135.93814    138.77325    52.252696     119.6425     119.6425     119.6425 
  942000    836.05417   -31.873406    2509.4423    8820.4844      1712602   -69.935137   -41.675297    15.990216     119.6425     119.6425     119.6425 
  943000    851.63565    -23.55477     2465.724    8816.1011      1712602   -25.039283   -79.182582    33.557556     119.6425     119.6425     119.6425 
  944000    837.98232   -72.726344    2529.8016    8793.1115      1712602    -134.1696   -19.866185   -64.143245     119.6425     119.6425     119.6425 
  945000     836.3948     27.21391    2479.3395    8847.7561      1712602   -4.2870109    10.366367    75.562373     119.6425     119.6425     119.6425 
  946000    837.23328   -72.485886    2524.5407    8799.2086      1712602    16.003664   -123.35172   -110.10961     119.6425     119.6425     119.6425 
  947000    814.39018    9.6451312     2557.534    8835.2131      1712602    51.388484   -7.2767566   -15.176334     119.6425     119.6425     119.6425 
  948000    835.00156   -61.801738    2503.5559    8825.6395      1712602   -61.781936   -40.726065   -82.897212     119.6425     119.6425     119.6425 
  949000    853.61032   -145.85057    2435.4498    8836.4166      1712602    -199.9726   -69.419738   -168.15935     119.6425     119.6425     119.6425 
  950000    866.05321    69.988887    2520.3705    8712.7953      1712602    45.860973    80.870445    83.235242     119.6425     119.6425     119.6425 
  951000    847.87454    51.814839    2497.7587    8790.2696      1712602   -2.7119593    66.528729    91.627748     119.6425     119.6425     119.6425 
  952000    835.73243    30.362552    2565.9361    8758.6078      1712602   -57.134753     106.3712    41.851208     119.6425     119.6425     119.6425 
  953000    822.49827   -45.849104    2526.6004    8837.6385      1712602   -31.110668   -44.668706   -61.767937     119.6425     119.6425     119.6425 
  954000    825.31461    25.347391    2540.0755    8814.9449      1712602    102.42036   -35.428102    9.0499155     119.6425     119.6425     119.6425 
  955000    847.67602    14.867722    2403.2041    8882.9538      1712602    37.640847    -19.80766    26.769978     119.6425     119.6425     119.6425 
  956000    824.47245    49.211835     2523.586      8832.78      1712602   -3.4758175    98.768493     52.34283     119.6425     119.6425     119.6425 
  957000    820.57341    61.960131    2515.9542    8851.5648      1712602    17.712492    31.146391    137.02151     119.6425     119.6425     119.6425 
  958000    836.37154   -84.065058    2518.8756    8799.8299      1712602    1.9243379   -76.962123   -177.15739     119.6425     119.6425     119.6425 
  959000    836.85189   -97.697173    2482.8493    8833.5975      1712602    -22.43366   -101.50708   -169.15079     119.6425     119.6425     119.6425 
  960000    825.70109    9.0673543    2478.0152    8871.7271      1712602    19.765378    51.051693   -43.615008     119.6425     119.6425     119.6425 
  961000    862.00607   -58.410802    2499.6479    8738.5654      1712602   -3.4781836   -87.805959   -83.948263     119.6425     119.6425     119.6425 
  962000    827.49986   -36.938864    2482.7889    8860.0978      1712602    8.6453688   -65.881435   -53.580525     119.6425     119.6425     119.6425 
  963000    830.55856    120.44453     2538.077    8794.9084      1712602    60.998844    106.27805    194.05669     119.6425     119.6425     119.6425 
  964000     838.3485   -72.332531    2469.3192    8839.3041      1712602   -36.885387    -94.94356   -85.168644     119.6425     119.6425     119.6425 
  965000    810.85902    32.168431    2559.9298    8831.9361      1712602    19.372052    19.693406    57.439834     119.6425     119.6425     119.6425 
  966000     859.0498   -55.901612    2474.7237    8769.3738      1712602     -73.0281   -71.562873   -23.113864     119.6425     119.6425     119.6425 
  967000    821.53086   -93.881747     2539.161    8818.9101      1712602   -109.86696   -33.923414   -137.85487     119.6425     119.6425     119.6425 
  968000    830.93684    43.797845    2580.4388    8748.2593      1712602   -19.619972    119.24712    31.766391     119.6425     119.6425     119.6425 
  969000    817.97808    32.514282    2524.0417    8843.7282      1712602    15.233476    27.005311     55.30406     119.6425     119.6425     119.6425 
  970000    827.82112   -71.541123    2469.4465    8867.7515      1712602   -118.73854    -99.43934     3.554509     119.6425     119.6425     119.6425 
  971000    820.70274   -39.879142    2546.8822    8811.4372      1712602   -54.182755   -42.504431   -22.950241     119.6425     119.6425     119.6425 
  972000    811.28983   -115.12042     2524.856    8861.6331      1712602    -146.2653   -43.177977   -155.91799     119.6425     119.6425     119.6425 
  973000    834.74585    54.550602    2511.1908    8803.1249      1712602    95.093498    48.292071    20.266238     119.6425     119.6425     119.6425 
  974000     841.2913    40.143342    2469.9618    8823.7287      1712602    86.536035   -43.658001    77.551992     119.6425     119.6425     119.6425 
  975000    812.96649   -62.085475     2498.738    8880.7582      1712602     4.632445   -107.08926   -83.799606     119.6425     119.6425     119.6425 
  976000    827.71329    33.217169    2518.6289    8815.2156      1712602    24.683286  -0.53360732    75.501827     119.6425     119.6425     119.6425 
  977000    819.48042    2.5501478    2425.4486      8932.92      1712602    33.876726   0.58106276   -26.807346     119.6425     119.6425     119.6425 
  978000     828.0313   -1.1323813    2520.2118    8811.3631      1712602   -16.186608    1.1549936    11.634471     119.6425     119.6425     119.6425 
  979000    852.46021    30.861385    2511.8425    8744.6008      1712602    36.269936     42.29293    14.021289     119.6425     119.6425     119.6425 
  980000    834.62517   -13.077882    2446.6103     8863.808      1712602   -43.803553   -52.797011    57.366917     119.6425     119.6425     119.6425 
  981000    808.29713   -69.597948    2489.4441     8900.713      1712602    -94.29881   -64.917665   -49.577368     119.6425     119.6425     119.6425 
  982000    796.61374   -57.887252    2521.2693    8903.9404      1712602   -60.366189   -57.622461   -55.673106     119.6425     119.6425     119.6425 
  983000    853.36973   -2.9392256    2477.1891    8774.0665      1712602    53.263125   -34.128658   -27.952144     119.6425     119.6425     119.6425 
  984000    831.15618   -125.20068    2529.6645      8788.64      1712602   -11.071953   -78.610554   -285.91953     119.6425     119.6425     119.6425 
  985000    827.06207    -52.99741    2505.5297    8824.5348      1712602   -30.864034    -36.20933   -91.918868     119.6425     119.6425     119.6425 
  986000    817.26332     84.94615    2623.1798    8736.1593      1712602    49.174912    153.69893    51.964603     119.6425     119.6425     119.6425 
  987000    814.89143    11.259504    2538.2637    8827.6926      1712602   -54.240128   -34.785047    122.80369     119.6425     119.6425     119.6425 
  988000     824.6512    34.346638    2444.4755    8890.9915      1712602    28.210318    22.820094    52.009501     119.6425     119.6425     119.6425 
  989000    813.42426   -41.842851     2514.342    8854.5995      1712602   -89.775456   -35.935046   0.18194903     119.6425     119.6425     119.6425 
  990000    827.76631    7.3551869    2462.2843    8862.0591      1712602    42.966216   -48.776656    27.876001     119.6425     119.6425     119.6425 
  991000    844.37056   -41.336468    2452.6168    8820.4446      1712602    81.645429    -58.83281   -146.82202     119.6425     119.6425     119.6425 
  992000    833.27996   -74.560232    2517.6449    8788.6196      1712602    -106.6744    -110.4141   -6.5922033     119.6425     119.6425     119.6425 
  993000     838.7282   -79.359896    2445.5781    8843.3679      1712602   -44.468301   -123.05412   -70.557263     119.6425     119.6425     119.6425 
  994000    829.76133     146.0062    2501.5648    8814.1414      1712602    104.58292    128.52658    204.90911     119.6425     119.6425     119.6425 
  995000     831.4627    -56.77738    2445.4488    8864.5732      1712602   -146.89841   -12.235486   -11.198248     119.6425     119.6425     119.6425 
  996000    856.24743   -34.296222    2354.5179    8879.2881      1712602   -12.619262   -105.53345    15.264045     119.6425     119.6425     119.6425 
  997000    818.68445    74.353996    2470.1107     8877.758      1712602    60.580723    -16.51907    179.00033     119.6425     119.6425     119.6425 
  998000    830.26912    61.389387    2462.1077    8849.7858      1712602    165.01799     15.94281    3.2073587     119.6425     119.6425     119.6425 
  999000    853.16625   -32.241472    2452.6281    8788.8083      1712602   -80.538638   -0.5939623   -15.591817     119.6425     119.6425     119.6425 
 1000000    841.36539    -66.05507    2509.9544    8766.9121      1712602   -49.975835   -134.86925   -13.320129     119.6425     119.6425     119.6425 
Loop time of 1307.92 on 1 procs for 1000000 steps with 1025 atoms

Pair  time (%) = 203.864 (15.587)
Bond  time (%) = 39.4355 (3.01514)
Neigh time (%) = 834.663 (63.8163)
Comm  time (%) = 63.4195 (4.8489)
Outpt time (%) = 2.38139 (0.182075)
Other time (%) = 164.152 (12.5506)

Nlocal:    1025 ave 1025 max 1025 min
Histogram: 1 0 0 0 0 0 0 0 0 0
Nghost:    3758 ave 3758 max 3758 min
Histogram: 1 0 0 0 0 0 0 0 0 0
Neighs:    3516 ave 3516 max 3516 min
Histogram: 1 0 0 0 0 0 0 0 0 0

Total # of neighbors = 3516
Ave neighs/atom = 3.43024
Ave special neighs/atom = 5.80683
Neighbor list builds = 100000
Dangerous builds = 100000
unfix 1st
unfix 2nd
unfix 3rd
write_restart 	restart.${simname}.dat
write_restart 	restart.nvthightemp.dat

print "[>> All done! <<]"
[>> All done! <<]

